%%MatrixMarket matrix array complex general
%
6561 1
-5.89735010754544E-3 -1.3860510226594555E-1
-1.914602403091001E-2 -1.338380389321925E-1
-1.921210777069067E-2 -1.339389429860623E-1
-5.909362739154098E-3 -1.3863794720268371E-1
8.1394598719069E-3 -1.4205558506930646E-1
-1.9242117520331888E-2 -1.3398313009788054E-1
8.141895816370714E-3 -1.4207127410201584E-1
-5.923485638582567E-3 -1.3866763399171336E-1
2.2823397891465928E-2 -1.4412005550406873E-1
-1.925895202686416E-2 -1.34008620113114E-1
2.2830867402537307E-2 -1.4413025776328547E-1
8.138534000817403E-3 -1.4209028828406017E-1
-5.934330901715091E-3 -1.3869013569201213E-1
3.801924506189598E-2 -1.4471522717085833E-1
-1.9269751009283905E-2 -1.3402618950656825E-1
3.802915690808212E-2 -1.447228844066705E-1
2.2833633093518317E-2 -1.4414330469970962E-1
8.134129595487491E-3 -1.4210776364816813E-1
-5.942145562032012E-3 -1.387073370900101E-1
5.358471595911359E-2 -1.4376288867584414E-1
-1.9277213884886575E-2 -1.3403961186058355E-1
5.3596181936702826E-2 -1.4376881210371975E-1
3.8035572521459594E-2 -1.4473242525935592E-1
2.283421137273502E-2 -1.441565998515761E-1
8.130264388332056E-3 -1.421227144243822E-1
-5.947740043764833E-3 -1.387209998297568E-1
6.936796216032826E-2 -1.4119561779596299E-1
-1.9282582036900447E-2 -1.3405052832137984E-1
6.93805764837879E-2 -1.4120003110158183E-1
5.360498258212813E-2 -1.4377597128067868E-1
3.8039744974176684E-2 -1.44742604112872E-1
2.2834049739210972E-2 -1.4416895290313816E-1
8.127291769485121E-3 -1.4213536809422953E-1
-5.951749325479389E-3 -1.3873227359470264E-1
8.520766531356838E-2 -1.3695935706730142E-1
-1.9286528896155578E-2 -1.340597916031609E-1
8.52211780173799E-2 -1.3696229888304587E-1
6.939106989375989E-2 -1.4120530222564237E-1
5.36117641933573E-2 -1.4378376169304594E-1
3.804267041796039E-2 -1.447525774452319E-1
2.2833825907478053E-2 -1.4418003174360816E-1
8.125173758885908E-3 -1.4214618727417866E-1
-5.954613072378837E-3 -1.3874188469604282E-1
1.0093393996466654E-1 -1.310151093148799E-1
-1.9289467817476227E-2 -1.3406790469175237E-1
1.0094815631056633E-1 -1.310165539556623E-1
8.523293722804322E-2 -1.3696588819322372E-1
6.93997979627996E-2 -1.4121112329200908E-1
5.361716478986871E-2 -1.4379165771295613E-1
3.8044982153993184E-2 -1.4476193534663567E-1
2.2833808954376214E-2 -1.4418988033786936E-1
8.123773135089576E-3 -1.4215559742080094E-1
-5.956637125742237E-3 -1.3875030608973035E-1
1.1636959387262494E-1 -1.233402963799248E-1
-1.929167596958871E-2 -1.3407519117138594E-1
1.1638433853113994E-1 -1.233401964064693E-1
1.0096087995183615E-1 -1.3101853520282492E-1
8.524315253365815E-2 -1.3696995908307577E-1
6.940716736066696E-2 -1.4121717726798294E-1
5.36216791008892E-2 -1.4379932350478705E-1
3.804703723490802E-2 -1.447705502046208E-1
2.283407610546682E-2 -1.4419866997349456E-1
8.122944525578142E-3 -1.42163937018943E-1
-5.95804146515165E-3 -1.3875785899083154E-1
1.3133161155433412E-1 -1.1392991830053228E-1
-1.9293351380994972E-2 -1.340818722382802E-1
1.313467142129486E-1 -1.1392822230004011E-1
1.1639778607924646E-1 -1.2334058196633081E-1
1.0097224247218481E-1 -1.310209588027841E-1
8.52520887799943E-2 -1.3697431975116045E-1
6.94135410634322E-2 -1.4122322219379807E-1
5.362564569754599E-2 -1.4380659381496752E-1
3.804901908323344E-2 -1.4477844217447136E-1
2.2834621011803915E-2 -1.4420659430800714E-1
8.122558708763666E-3 -1.4217146558156005E-1
-5.958990213468341E-3 -1.3876477035158863E-1
1.4563281032388148E-1 -1.0279754437811167E-1
-1.929464224673484E-2 -1.3408810587272332E-1
1.4564809952434501E-1 -1.027942056775072E-1
1.3136067470264598E-1 -1.1392699764039763E-1
1.1641002372588735E-1 -1.2334139706109465E-1
1.0098242182135977E-1 -1.3102370676133407E-1
8.5260007758197E-2 -1.3697880439353616E-1
6.941920333615073E-2 -1.412291093256534E-1
5.3629278970084716E-2 -1.4381341964950442E-1
3.805101113150453E-2 -1.4478569612273134E-1
2.2835403925058093E-2 -1.4421383161486329E-1
8.12250629420275E-3 -1.4217838143257244E-1
-5.959609841981894E-3 -1.38771205929319E-1
1.5908364220511972E-1 -8.997613658198325E-2
-1.929566335724802E-2 -1.340940085915215E-1
1.5909894280412443E-1 -8.997111816704192E-2
1.456623758278691E-1 -1.0279134729068001E-1
1.313735535056343E-1 -1.1392620982889883E-1
1.1642117506439173E-1 -1.2334256758497296E-1
1.009916075295484E-1 -1.3102666747546424E-1
8.52671360582937E-2 -1.3698329535906933E-1
6.942435979215862E-2 -1.412347684900469E-1
5.363270667375193E-2 -1.4381981968323293E-1
3.8053041887061094E-2 -1.4479241782861732E-1
2.2836374105379847E-2 -1.4422053460392575E-1
8.122695757155875E-3 -1.4218483739833895E-1
-5.960000416594513E-3 -1.3877729004528286E-1
1.7149412207174639E-1 -7.551869594599986E-2
-1.9296505945085748E-2 -1.3409966845197427E-1
1.7150925449651258E-1 -7.551197361167787E-2
1.5911334358019527E-1 -8.996660363623658E-2
1.4567568279932389E-1 -1.0278894737314528E-1
1.31385439218341E-1 -1.1392581137959054E-1
1.1643137918363451E-1 -1.2334401867000905E-1
1.0099997659523625E-1 -1.3102975329294902E-1
8.527365435507978E-2 -1.369877242121113E-1
6.94291513383729E-2 -1.4124018478744693E-1
5.363600001929781E-2 -1.4382584684687752E-1
3.805511072256105E-2 -1.4479871323923998E-1
2.283747955520273E-2 -1.44226830413855E-1
8.12305045101105E-3 -1.4219095260120196E-1
-5.960242763815849E-3 -1.3878311792091066E-1
1.826758638902165E-1 -5.949871965577887E-2
-1.9297243868695062E-2 -1.3410515327828748E-1
1.8269064438212315E-1 -5.949028422437113E-2
1.7152359014288912E-1 -7.550578769532228E-2
1.5912687691584107E-1 -8.99625788621851E-2
1.4568808579116208E-1 -1.0278697495798017E-1
1.3139643572331794E-1 -1.1392575191153773E-1
1.1644077377630697E-1 -1.2334568693846293E-1
1.0100768113371969E-1 -1.3103290615391852E-1
8.527969904021829E-2 -1.3699206282785367E-1
6.943367048699686E-2 -1.4124537769718284E-1
5.3639194666734266E-2 -1.4383156809384082E-1
3.805720220898955E-2 -1.4480467972977465E-1
2.283867105515341E-2 -1.442328237512471E-1
8.12350588334682E-3 -1.4219682094430508E-1
-5.96040315582321E-3 -1.387887637104369E-1
1.924442065776369E-1 -4.201045611456242E-2
-1.929793767412833E-2 -1.3411051603164356E-1
1.924584480455743E-1 -4.200031509166977E-2
1.8270472522822498E-1 -5.948242280719127E-2
1.7153715372024184E-1 -7.55001289168666E-2
1.591395922492944E-1 -8.995902335843944E-2
1.4569966384273325E-1 -1.0278539595408018E-1
1.3140665060407208E-1 -1.139259862910769E-1
1.1644948435559885E-1 -1.2334752642760168E-1
1.0101484475050994E-1 -1.3103609565504615E-1
8.528536909648626E-2 -1.369963120095249E-1
6.94379754228488E-2 -1.4125038565077477E-1
5.364230447701647E-2 -1.4383705312723788E-1
3.80592940006123E-2 -1.448104031780578E-1
2.283990368400344E-2 -1.4423860057768897E-1
8.124007532953071E-3 -1.4220251717331578E-1
-5.960536496523825E-3 -1.3879428585722456E-1
2.0062040993797464E-1 -2.316894592104281E-2
-1.92986374163112E-2 -1.3411579841962834E-1
2.006339232263734E-1 -2.3157124735828538E-2
1.9247208388332593E-1 -4.199078790480919E-2
1.8271812570520868E-1 -5.947512925041209E-2
1.7154998345811398E-1 -7.549498357810866E-2
1.5915155080467222E-1 -8.99559139235518E-2
1.457105017402512E-1 -1.027841784706232E-1
1.3141618661783072E-1 -1.1392647952436595E-1
1.1645761901933548E-1 -1.2334950951305995E-1
1.010215639704751E-1 -1.3103931365593444E-1
8.529073412591946E-2 -1.370004912700911E-1
6.944210075260517E-2 -1.4125525577992384E-1
5.364533026144382E-2 -1.4384236858665445E-1
3.806136116766171E-2 -1.4481595768835404E-1
2.2841137235036585E-2 -1.4424423145985138E-1
8.124509169777033E-3 -1.4220810123419939E-1
-5.960688558497026E-3 -1.3879973078979072E-1
2.0703389983135018E-1 -3.109837773012442E-3
-1.929938463973143E-2 -1.341210334682201E-1
2.0704649526171842E-1 -3.096380729521666E-3
2.006469236749216E-1 -2.3145957278176626E-2
1.924851294015108E-1 -4.198187045064583E-2
1.8273087592555146E-1 -5.94683943154211E-2
1.715621275685956E-1 -7.549033581062495E-2
1.591628201002621E-1 -8.99532281114346E-2
1.457206835421922E-1 -1.0278329648628944E-1
1.314251365114752E-1 -1.1392720855986435E-1
1.1646526717360135E-1 -1.2335162484343527E-1
1.0102791197056583E-1 -1.3104256813941376E-1
8.529584164840637E-2 -1.370046309203438E-1
6.944606525306661E-2 -1.4126003756851369E-1
5.364826528844304E-2 -1.43847575343988E-1
3.806337858751107E-2 -1.448214064082401E-1
2.2842336165072353E-2 -1.4424977434897604E-1
8.124971552306588E-3 -1.4221362142387425E-1
-5.960897586908665E-3 -1.388051355593546E-1
2.1152454027851564E-1 1.80110298208546E-2
-1.9300213755826863E-2 -1.3412624740846024E-1
2.115360293927848E-1 1.8026058848721938E-2
2.0705867068160988E-1 -3.083615653385862E-3
2.0065942362394046E-1 -2.3135440806214963E-2
1.9249760869641336E-1 -4.197355647370522E-2
1.827430144164083E-1 -5.946220711119662E-2
1.715736403942521E-1 -7.548616984512227E-2
1.5917346910884983E-1 -8.995094686895017E-2
1.457302880623991E-1 -1.0278273168962154E-1
1.314335806297579E-1 -1.1392816187267348E-1
1.1647250058530195E-1 -1.2335387395755434E-1
1.010339429275058E-1 -1.3104587768994946E-1
8.530072305361999E-2 -1.3700876644629936E-1
6.944987728052807E-2 -1.4126477913633376E-1
5.365109874435102E-2 -1.438527274909563E-1
3.8065322251799E-2 -1.448268026937041E-1
2.2843469361806007E-2 -1.4425527681785452E-1
8.125361442240677E-3 -1.4221911673548668E-1
-5.9611954433425205E-3 -1.3881052978569386E-1
2.1394490891883403E-1 4.0018288222778434E-2
-1.930115308049658E-2 -1.3413146104934182E-1
2.1395510639476786E-1 4.003480534055557E-2
2.1154719218268125E-1 1.804036073520204E-2
2.070704361583691E-1 -3.0715407230267155E-3
2.006714426044503E-1 -2.3125571075423713E-2
1.9250955293956074E-1 -4.196583847414284E-2
1.8275458536339106E-1 -5.945655657409472E-2
1.715845788082672E-1 -7.548247186653623E-2
1.5918356453733956E-1 -8.994905609010251E-2
1.4573938621822713E-1 -1.0278247377820163E-1
1.3144158648668813E-1 -1.1392933777675153E-1
1.1647937556796402E-1 -1.2335626769165305E-1
1.0103969612535596E-1 -1.3104926706755482E-1
8.530539820890033E-2 -1.3701293475496673E-1
6.945353850959744E-2 -1.4126952520850297E-1
5.365381793014264E-2 -1.4385787220875848E-1
3.8067169980104225E-2 -1.4483219131714603E-1
2.284450985447297E-2 -1.4426077783506466E-1
8.125650850009483E-3 -1.4222461862039804E-1
-5.961608474033421E-3 -1.3881593709198636E-1
2.1416255112533208E-1 6.271794484955144E-2
-1.9302225682361236E-2 -1.341366907949333E-1
2.141712768118706E-1 6.273584594479416E-2
2.1396507255807018E-1 4.0050564421881006E-2
2.1155803693566574E-1 1.8053936681710576E-2
2.0708180768449255E-1 -3.060153058775859E-3
2.0068300610370168E-1 -2.3116342920362753E-2
1.925209983839532E-1 -4.195870869336129E-2
1.8276563591687808E-1 -5.9451432745389284E-2
1.7159499922791824E-1 -7.547923122625319E-2
1.5919316832034136E-1 -8.994754716756288E-2
1.45748039879331E-1 -1.027825197315511E-1
1.3144920952387934E-1 -1.1393074221367804E-1
1.1648593552954417E-1 -1.2335882294951507E-1
1.010451994846653E-1 -1.3105276391690726E-1
8.53098789090765E-2 -1.3701717178091005E-1
6.945704649894614E-2 -1.4127431611685523E-1
5.365640964813889E-2 -1.4386305005031577E-1
3.806890179769872E-2 -1.4483760957978592E-1
2.284543453932765E-2 -1.4426630918338493E-1
8.12581644311795E-3 -1.422301523337865E-1
-5.962158210195274E-3 -1.3882137618045173E-1
2.1206218712598165E-1 8.589853854505873E-2
-1.9303450021445862E-2 -1.3414194942126018E-1
2.1206926815208585E-1 8.591769931151694E-2
2.1417986772988465E-1 6.275296342125594E-2
2.1397481427873635E-1 4.006556623535315E-2
2.1156857684722266E-1 1.806678862976448E-2
2.0709280626881316E-1 -3.0494491022897874E-3
2.0069414408748953E-1 -2.3107750896862473E-2
1.9253198433067692E-1 -4.195215998623408E-2
1.8277621383984205E-1 -5.9446827695125104E-2
1.716049554132131E-1 -7.54764410172738E-2
1.5920233619694865E-1 -8.994641676449075E-2
1.4575630176241058E-1 -1.0278287251036068E-1
1.3145649447523916E-1 -1.139323865058423E-1
1.1649221344450694E-1 -1.2336156004750069E-1
1.0105047243786194E-1 -1.3105639643873732E-1
8.531417142475214E-2 -1.3702151103976298E-1
6.946039646166653E-2 -1.4127918740868176E-1
5.3658861098607125E-2 -1.4386829541770768E-1
3.8070500123853934E-2 -1.4484308828956727E-1
2.2846223923914992E-2 -1.4427189659501727E-1
8.125839060384093E-3 -1.4223573797550748E-1
-5.9628619025345496E-3 -1.38826861675886E-1
2.0754784554074393E-1 1.0933254428927791E-1
-1.9304840409271034E-2 -1.3414724669765327E-1
2.0755311847663196E-1 1.0935282048670887E-1
2.1207631247201464E-1 8.59360571156245E-2
2.1418832959394407E-1 6.276929775576556E-2
2.1398434250079482E-1 4.007981207626559E-2
2.1157882933973438E-1 1.8078919023449578E-2
2.0710345683237358E-1 -3.039425037877622E-3
2.0070488946454335E-1 -2.3099789883870205E-2
1.925425512731375E-1 -4.19461864797388E-2
1.827863656281692E-1 -5.944273599903427E-2
1.716144970146861E-1 -7.54740980713622E-2
1.592111171376928E-1 -8.994566608071819E-2
1.4576421598317219E-1 -1.0278353954750516E-1
1.314634769540777E-1 -1.1393428533477681E-1
1.1649823406486388E-1 -1.2336450067038805E-1
1.010555282036395E-1 -1.3106019180757125E-1
8.53182783724505E-2 -1.370259828081299E-1
6.946358248954652E-2 -1.4128416980199654E-1
5.366116046506552E-2 -1.4387363710381618E-1
3.80719498497652E-2 -1.448486525989188E-1
2.2846861880338413E-2 -1.4427756064627853E-1
8.125703315237329E-3 -1.4224139129601124E-1
-5.963732935470973E-3 -1.3883240478095638E-1
2.005448963249848E-1 1.3277802462582178E-1
-1.9306407426573607E-2 -1.341525899040563E-1
2.005482093801883E-1 1.3279925262482517E-1
2.0755845409910376E-1 1.0937228144490274E-1
2.120833248472511E-1 8.595361222989178E-2
2.1419667150429988E-1 6.278484979150269E-2
2.1399367172188816E-1 4.0093303616300445E-2
2.1158881521734849E-1 1.809033054219382E-2
2.071137870169649E-1 -3.0300771827494978E-3
2.0071527661188296E-1 -2.3092455534830827E-2
1.9255273933584766E-1 -4.194078395564443E-2
1.8279613516091747E-1 -5.9439154835986795E-2
1.7162366877814986E-1 -7.547220255944204E-2
1.592195533656381E-1 -8.994529985746097E-2
1.4577181895709185E-1 -1.0278453126285642E-1
1.3147018503035754E-1 -1.1393645505270988E-1
1.1650401579723595E-1 -1.2336766635709046E-1
1.0106037555763737E-1 -1.3106417514552063E-1
8.53222000839541E-2 -1.370306137095184E-1
6.946659840042343E-2 -1.4128928932113047E-1
5.366329727580052E-2 -1.4387909880587046E-1
3.807323834600828E-2 -1.4485432271544996E-1
2.284733543010314E-2 -1.4428331749019063E-1
8.125397283562883E-3 -1.4224712435535714E-1
-5.964781192521598E-3 -1.3883801381634E-1
1.9100195590590177E-1 1.5598052260458714E-1
-1.93081583137187E-2 -1.3415798424984904E-1
1.9100317113443221E-1 1.5600252013108284E-1
2.0055168551982144E-1 1.3281966087408062E-1
2.07563856380402E-1 1.0939092727385363E-1
2.120903128520124E-1 8.597036516867573E-2
2.1420490555014615E-1 6.279962064183292E-2
2.1400281935068627E-1 4.0106042722064174E-2
2.1159855774894437E-1 1.8101025833355454E-2
2.071238260297513E-1 -3.021402309986455E-3
2.0072534009264173E-1 -2.3085744566842446E-2
1.9256258707007148E-1 -4.193594996777664E-2
1.828055628368542E-1 -5.9436083781692586E-2
1.7163251026096404E-1 -7.54707573518333E-2
1.5922768076715355E-1 -8.994532530941907E-2
1.4577914044056414E-1 -1.0278585972713476E-1
1.3147664068221274E-1 -1.1393891235052449E-1
1.1650957224900507E-1 -1.2337107743193551E-1
1.0106502019237745E-1 -1.310683688868506E-1
8.532593561147106E-2 -1.3703542656148307E-1
6.946943834791448E-2 -1.4129456755854042E-1
5.3665262650235544E-2 -1.4388469963837183E-1
3.8074355437419986E-2 -1.4486011451074246E-1
2.2847634558674047E-2 -1.442891794637555E-1
8.124912230302499E-3 -1.422529460678189E-1
-5.966013362652102E-3 -1.3884369468245114E-1
1.7889263714572431E-1 1.7867518790709033E-1
-1.9310097239906118E-2 -1.341634331881832E-1
1.788916326070621E-1 1.786977550575293E-1
1.9100465037438039E-1 1.5602370181190917E-1
2.0055532804024842E-1 1.328392493680805E-1
2.075693316065921E-1 1.094087582430054E-1
2.1209728654952228E-1 8.598631664693486E-2
2.1421304628859006E-1 6.281361160236894E-2
2.1401180496961664E-1 4.0118031311178505E-2
2.1160808173347387E-1 1.811100732169485E-2
2.071336035827071E-1 -3.0133978358005873E-3
2.0073511360974175E-1 -2.30796548562492E-2
1.9257213060480155E-1 -4.193168372097476E-2
1.828146851162506E-1 -5.9433524372519864E-2
1.7164105589996806E-1 -7.546976724365034E-2
1.5923552951314857E-1 -8.994575109244798E-2
1.4578620458672484E-1 -1.0278753753231602E-1
1.3148286107113447E-1 -1.13941673232541E-1
1.1651491349123914E-1 -1.2337475227181381E-1
1.0106946577522687E-1 -1.3107279242767397E-1
8.532948346587602E-2 -1.3704044037566335E-1
6.947209722519157E-2 -1.4130002193845262E-1
5.3667049434928914E-2 -1.4389045457387725E-1
3.807529334472048E-2 -1.4486604002794284E-1
2.2847752036678673E-2 -1.4429515558659825E-1
8.12424235649516E-3 -1.422588626385651E-1
-5.967433200932988E-3 -1.388494511845979E-1
1.6421711715967768E-1 2.005891249415305E-1
-1.9312225513981363E-2 -1.341689386411935E-1
1.6421378901919292E-1 2.00612045454353E-1
1.7889099295902575E-1 1.78719519225098E-1
1.910063963471577E-1 1.5604406753874603E-1
2.005591421306949E-1 1.3285801818116857E-1
2.0757488812421654E-1 1.0942577476175828E-1
2.1210425808699765E-1 8.600146753080258E-2
2.1422111017399142E-1 6.282682405495069E-2
2.1402064959879194E-1 4.0129271223971884E-2
2.1161741263830852E-1 1.8120277083340623E-2
2.0714314899490374E-1 -3.006061879655694E-3
2.007446292107506E-1 -2.3074185354988192E-2
1.9258140311275954E-1 -4.192798577456822E-2
1.8282353438222676E-1 -5.943147955415221E-2
1.7164933532304533E-1 -7.546923816727347E-2
1.5924312477441066E-1 -8.994658637529908E-2
1.4579303093864399E-1 -1.0278957687635915E-1
1.3148885962764012E-1 -1.1394475226608189E-1
1.1652004705828016E-1 -1.2337870681487006E-1
1.0107371474328627E-1 -1.3107746193629632E-1
8.533284216258079E-2 -1.370456704597315E-1
6.947457095948965E-2 -1.4130566601942238E-1
5.366865228656528E-2 -1.4389637484754148E-1
3.807604662133034E-2 -1.4487210793020652E-1
2.2847683257637294E-2 -1.44301251985983E-1
8.12338460066596E-3 -1.422648779224234E-1
-5.969041731837642E-3 -1.3885528530821462E-1
1.470034965315761E-1 2.2144394882539659E-1
-1.931454183231652E-2 -1.3417450121872088E-1
1.4699776109999393E-1 2.2146699157189498E-1
1.6421092593297906E-1 2.006341852588128E-1
1.788907204340686E-1 1.787404802024582E-1
1.9100841330842805E-1 1.5606361720664375E-1
2.005631346744173E-1 1.328759674607677E-1
2.0758053601820184E-1 1.0944197735631944E-1
2.1211124123267963E-1 8.601581879318945E-2
2.1422911495274993E-1 6.283925940496021E-2
2.140293749764716E-1 4.013976415953938E-2
2.1162657583338387E-1 1.812883681507527E-2
2.0715249047776504E-1 -2.999393207755439E-3
2.0075391674181178E-1 -2.3069335883546618E-2
1.9259043454561425E-1 -4.1924857639851286E-2
1.8283213902687556E-1 -5.942995308156363E-2
1.716573737964428E-1 -7.546917644951388E-2
1.5925048745757994E-1 -8.994784005324333E-2
1.45799635323858E-1 -1.027919888514109E-1
1.3149464696493166E-1 -1.1394816205021935E-1
1.1652497875631934E-1 -1.2338295427762141E-1
1.0107776891956712E-1 -1.310823903107156E-1
8.53360106171971E-2 -1.3705112856766094E-1
6.947685671620375E-2 -1.4131150979819937E-1
5.367006771577778E-2 -1.439024683354557E-1
3.807661207449995E-2 -1.448783238798766E-1
2.2847426089382828E-2 -1.4430747224666113E-1
8.122338458783717E-3 -1.4227099371641733E-1
-5.970837459543212E-3 -1.388611974689944E-1
1.2730892451153483E-1 2.4095853199648662E-1
-1.9317042529426037E-2 -1.3418012044054345E-1
1.273007201566737E-1 2.4098145274821334E-1
1.469925893997626E-1 2.2148928568123952E-1
1.6420852970688093E-1 2.0065554405436056E-1
1.7889081847809282E-1 1.787606377209536E-1
1.910107068713112E-1 1.560823507411479E-1
2.0056731397239724E-1 1.328930974493769E-1
2.075862867270241E-1 1.0945736667376535E-1
2.1211825087741557E-1 8.60293715054737E-2
2.1423707907079603E-1 6.285091906948531E-2
2.140380029119723E-1 4.014951168326293E-2
2.1163559595685952E-1 1.8136687898332414E-2
2.071616546058418E-1 -2.993391066222296E-3
2.0076300351678425E-1 -2.3065106824522705E-2
1.9259925157672306E-1 -4.192230131700024E-2
1.8284052369419151E-1 -5.9428948921283316E-2
1.7166519273751848E-1 -7.54695881453091E-2
1.5925763491349837E-1 -8.99495201036072E-2
1.4580603064362982E-1 -1.0279478290893118E-1
1.3150023163268487E-1 -1.1395191285364117E-1
1.1652971329696556E-1 -1.2338750499146266E-1
1.0108162998439188E-1 -1.3108758721306224E-1
8.533898843892265E-2 -1.3705682308350395E-1
6.947895302223665E-2 -1.4131755997291112E-1
5.367129408618459E-2 -1.4390873987043176E-1
3.807698868177754E-2 -1.4488469086206854E-1
2.284698073530851E-2 -1.4431381769427373E-1
8.121105798298884E-3 -1.4227721000673627E-1
-5.972816593103793E-3 -1.3886718672432433E-1
1.0522046595874822E-1 2.5885192143495744E-1
-1.9319721768527157E-2 -1.3418579489848548E-1
1.0520975488046275E-1 2.588744648302171E-1
1.272931758909629E-1 2.4100366699641437E-1
1.469879828771934E-1 2.215108307417522E-1
1.6420660309255763E-1 2.0067612139637278E-1
1.7889129161171605E-1 1.7877999147115345E-1
1.9101328378981156E-1 1.561002681115946E-1
2.005716894313196E-1 1.3290940850158864E-1
2.075921526353601E-1 1.0947194349622007E-1
2.1212530254363152E-1 8.604212684952375E-2
2.1424502112282678E-1 6.286180450425485E-2
2.140465547286822E-1 4.015851529600856E-2
2.1164449641737226E-1 1.8143831546683437E-2
2.0717066595299094E-1 -2.988054928118919E-3
2.0077191415645534E-1 -2.306149874474818E-2
1.92607877684539E-1 -4.192031880743352E-2
1.828487096112517E-1 -5.942847069243572E-2
1.7167281024335324E-1 -7.547047846041637E-2
1.5926458157913034E-1 -8.995163306339231E-2
1.458122275435072E-1 -1.0279796646155133E-1
1.3150562073228797E-1 -1.1395601237781648E-1
1.1653425479414134E-1 -1.2339236633289705E-1
1.0108529982447542E-1 -1.3109305914291833E-1
8.534177614028872E-2 -1.370627592173242E-1
6.948085985569392E-2 -1.4132382021885942E-1
5.367233159864133E-2 -1.4391519153090465E-1
3.807717750087535E-2 -1.4489120946533046E-1
2.2846349593180784E-2 -1.4432028766144883E-1
8.119690682889508E-3 -1.4228352521014473E-1
-5.974973216632584E-3 -1.3887325097591954E-1
8.085568730211308E-2 2.748464034125595E-1
-1.9322571696009695E-2 -1.3419152237746834E-1
8.084245713839026E-2 2.748683051733581E-1
1.051997970250813E-1 2.5889635410644063E-1
1.272862928525766E-1 2.4102517421045444E-1
1.469839436836943E-1 2.215316261186974E-1
1.642051496605334E-1 2.0069591673550222E-1
1.788921452397367E-1 1.7879854114850957E-1
1.9101615169395436E-1 1.5611736937820042E-1
2.0057627122687963E-1 1.329249011190481E-1
2.075981466629819E-1 1.0948570877823506E-1
2.1213241191946072E-1 8.605408616775072E-2
2.1425295936705369E-1 6.28719172855047E-2
2.140550508086971E-1 4.0166776563513654E-2
2.1165329903148553E-1 1.815026900839865E-2
2.071795468841446E-1 -2.9833842016276607E-3
2.0078067057573704E-1 -2.305851201267216E-2
1.9261633334556336E-1 -4.191891165031584E-2
1.8285671496551192E-1 -5.942852116925908E-2
1.7168024160727538E-1 -7.547185128598022E-2
1.5927133956132944E-1 -8.995418364166169E-2
1.4581823498605587E-1 -1.0280154461221508E-1
1.3151082042097295E-1 -1.1396046563103297E-1
1.165386071628358E-1 -1.23397542738087E-1
1.0108878081028214E-1 -1.3109880957158487E-1
8.534437528790552E-2 -1.370689392079748E-1
6.9482578690758E-2 -1.4133029143284898E-1
5.3673182258332376E-2 -1.439218229047512E-1
3.807718157356113E-2 -1.448978781334695E-1
2.2845537111301828E-2 -1.44326879720744E-1
8.118099207627376E-3 -1.42289936367874E-1
-5.977299456124947E-3 -1.3887938710179693E-1
5.436294077690446E-2 2.8867069006781965E-1
-1.932558263093832E-2 -1.3419729996570234E-1
5.4347206019552424E-2 2.8869167942535817E-1
8.083006914727087E-2 2.748896155363548E-1
1.0519059326950973E-1 2.589175886036615E-1
1.2728007268087269E-1 2.4104597354789253E-1
1.469804745710869E-1 2.2155167099563863E-1
1.642041736407101E-1 2.0071492946438285E-1
1.78893385428093E-1 1.7881628650552298E-1
1.910193187980459E-1 1.5613365475395902E-1
2.0058106994599975E-1 1.3293957602091236E-1
2.076042818590032E-1 1.0949866372754574E-1
2.121395944291483E-1 8.606525105973818E-2
2.1426091131218733E-1 6.288125923807471E-2
2.1406351024315567E-1 4.01742973016035E-2
2.11662023783111E-1 1.8156001819092615E-2
2.071883174629856E-1 -2.9793778985564186E-3
2.0078929206692023E-1 -2.3056146406907244E-2
1.9262463629124127E-1 -4.191808050202262E-2
1.828645553011328E-1 -5.942910185938472E-2
1.716874997990302E-1 -7.547370881542263E-2
1.5927791914555792E-1 -8.995717442839102E-2
1.4582406073019938E-1 -1.028055199759175E-1
1.3151583631649355E-1 -1.139652748674803E-1
1.1654277442382173E-1 -1.2340303575030859E-1
1.0109207599290411E-1 -1.3110483907198703E-1
8.534678860067305E-2 -1.370753625178621E-1
6.948411250739928E-2 -1.4133697195310838E-1
5.367384981357478E-2 -1.4392863131617664E-1
3.807700581366087E-2 -1.449046933880739E-1
2.284454964904276E-2 -1.4433358988065254E-1
8.116339348588287E-3 -1.4229643930907532E-1
-5.979785647701229E-3 -1.388855910979823E-1
2.5921328376162935E-2 3.0006319937630904E-1
-1.9328743254706637E-2 -1.3420312417079497E-1
2.590313158201793E-2 3.00083001679106E-1
5.4332397200743975E-2 2.8871215041401754E-1
8.081852399659077E-2 2.749103336874614E-1
1.0518214482984747E-1 2.5893816723314905E-1
1.2727451742989884E-1 2.4106606388484156E-1
1.4697757875125417E-1 2.2157096442664234E-1
1.6420367973110858E-1 2.0073315898187935E-1
1.7889501865920743E-1 1.788332274166462E-1
1.9102279360483065E-1 1.561491246737115E-1
2.005860962466251E-1 1.3295343422308029E-1
2.0761057103424238E-1 1.0951080990003251E-1
2.1214686486674408E-1 8.607562351078847E-2
2.1426889338559646E-1 6.28898326046956E-2
2.1407195057734799E-1 4.01810797974408E-2
2.1167068868825062E-1 1.8161032080762793E-2
2.0719699545808024E-1 -2.9760343052956943E-3
2.0079779544939094E-1 -2.305440074025089E-2
1.9263280178876527E-1 -4.191782474572955E-2
1.828722439005924E-1 -5.9430212646762966E-2
1.7169459590186184E-1 -7.547605125194154E-2
1.592843292335215E-1 -8.996060568736534E-2
1.4582971172792022E-1 -1.028098925769304E-1
1.315206738214649E-1 -1.1397043958147728E-1
1.1654676093883816E-1 -1.2340884410490191E-1
1.010951892483674E-1 -1.3111114547327596E-1
8.534902001307995E-2 -1.3708202603009664E-1
6.948546578489112E-2 -1.4134385778100161E-1
5.367433969323557E-2 -1.4393561204863073E-1
3.807665690352498E-2 -1.4491165004124518E-1
2.2843395347035982E-2 -1.443404127753707E-1
8.114420810835863E-3 -1.423030288063227E-1
-5.9824205100084595E-3 -1.388918582021803E-1
-4.259670447968434E-3 3.08775397586904E-1
-1.9332040762299427E-2 -1.3420899100575862E-1
-4.280257710586984E-3 3.087937370980506E-1
2.588593826499285E-2 3.001023688208152E-1
5.431851482412557E-2 2.8873210204955113E-1
8.08078225532597E-2 2.74930458268899E-1
1.0517445317007473E-1 2.589580885336658E-1
1.2726962943733677E-1 2.4108544388843797E-1
1.4697525972607947E-1 2.2158950540715752E-1
1.6420367287643262E-1 2.007506047814856E-1
1.7889705156350308E-1 1.788493639812164E-1
1.9102658459934052E-1 1.5616377990109323E-1
2.0059136052794527E-1 1.3296647715763718E-1
2.0761702642644825E-1 1.0952214933564072E-1
2.1215423708659598E-1 8.608520605264999E-2
2.142769206840018E-1 6.289764024503647E-2
2.140803876478643E-1 4.018712705082981E-2
2.1167930974304475E-1 1.8165362748900814E-2
2.072055964213316E-1 -2.9733506613527565E-3
2.0080619527451204E-1 -2.3053272531418367E-2
1.9264084294710343E-1 -4.191814217624282E-2
1.8287979215344816E-1 -5.9431851511459924E-2
1.7170153950436698E-1 -7.54788765947183E-2
1.5929057772157745E-1 -8.996447522312574E-2
1.458351944557044E-1 -1.0281465980584246E-1
1.3152533838615715E-1 -1.139759565538981E-1
1.1655057159504531E-1 -1.2341496383776818E-1
1.0109812538039939E-1 -1.3111772401647478E-1
8.535107470149235E-2 -1.3708892423102914E-1
6.948664446920855E-2 -1.4135094278095736E-1
5.3674658924968505E-2 -1.4394275854535435E-1
3.807614317918236E-2 -1.4491874137265506E-1
2.284208398449889E-2 -1.4434734181424408E-1
8.112354865813645E-3 -1.4230969870474353E-1
-5.98519130283378E-3 -1.3889818299247733E-1
-3.594092060427957E-2 3.1457517103213706E-1
-1.9335461021877748E-2 -1.34214896050199E-1
-3.5963797061714466E-2 3.145917738590836E-1
-4.299771248608399E-3 3.088117345851183E-1
2.5869748809830548E-2 3.0012129962665E-1
5.430555948433562E-2 2.887515326715265E-1
8.07979658016934E-2 2.749499874294696E-1
1.0516751989025552E-1 2.589773507279264E-1
1.2726541117195325E-1 2.411041120934953E-1
1.469735210950972E-1 2.21607292970044E-1
1.6420415804585478E-1 2.0076726653777222E-1
1.7889949066262592E-1 1.7886469662047014E-1
1.9103069996241617E-1 1.5617762164442414E-1
2.0059687263335998E-1 1.3297870680316395E-1
2.0762365941846744E-1 1.0953268471323266E-1
2.1216172375702827E-1 8.609400194642375E-2
2.1428500679329046E-1 6.290468585167701E-2
2.1408883549792243E-1 4.0192443025340766E-2
2.1168790094333428E-1 1.8168997910892007E-2
2.0721413381181747E-1 -2.9713228618615632E-3
2.008145040417857E-1 -2.305275770514131E-2
1.926487710061878E-1 -4.191902872850541E-2
1.8288720989249513E-1 -5.943401431123084E-2
1.717083390429484E-1 -7.548218048870367E-2
1.59296671814378E-1 -8.996877830876729E-2
1.458405151768139E-1 -1.0281981641681628E-1
1.3152983570600374E-1 -1.1398181991615529E-1
1.1655421193145175E-1 -1.2342138840866161E-1
1.0110089018310556E-1 -1.3112456751924317E-1
8.53529590862485E-2 -1.3709604939844305E-1
6.948765591978376E-2 -1.4135821886461195E-1
5.367481604772809E-2 -1.4395006258890394E-1
3.80754745132488E-2 -1.4492595929894314E-1
2.2840626843694572E-2 -1.4435436933382906E-1
8.110154206582142E-3 -1.4231644204738103E-1
-5.98808397815007E-3 -1.3890455948533478E-1
-6.885471270115469E-2 3.172501920468401E-1
-1.9338988752783653E-2 -1.3422083452172348E-1
-6.887974698617355E-2 3.1726478922770474E-1
-3.5985537922134506E-2 3.1460813737372484E-1
-4.31821074769282E-3 3.088293886651697E-1
2.585456362113733E-2 3.0013979209761865E-1
5.429353179517709E-2 2.887704399916234E-1
8.078895474126939E-2 2.7496891889079883E-1
1.0516134658969625E-1 2.589959518105882E-1
1.2726186506687587E-1 2.4112206698868133E-1
1.469723663492866E-1 2.2162432628823747E-1
1.6420513998841446E-1 2.007831442364141E-1
1.7890234210760828E-1 1.7887922620895783E-1
1.9103514730336202E-1 1.561906516971348E-1
2.0060264158837943E-1 1.329901258430246E-1
2.0763048030263143E-1 1.0954241952910558E-1
2.1216933617810269E-1 8.610201538934524E-2
2.1429316367346757E-1 6.291097418672884E-2
2.140973063483481E-1 4.019703290663661E-2
2.116964743523561E-1 1.817194305921646E-2
2.072226191543323E-1 -2.969945188801402E-3
2.0082273243797602E-1 -2.3052850346235724E-2
1.9265659562421467E-1 -4.192047826316731E-2
1.8289450569555651E-1 -5.9436694616750954E-2
1.7171500209764975E-1 -7.548595612238759E-2
1.593026182939361E-1 -8.997350765764534E-2
1.4584568016149266E-1 -1.0282535456922803E-1
1.3153417188113814E-1 -1.1398802124358602E-1
1.1655768823796046E-1 -1.2342810883991202E-1
1.0110349047669558E-1 -1.3113166653919536E-1
8.535468082008589E-2 -1.371033917850436E-1
6.948850885778857E-2 -1.413656761830441E-1
5.367482101980415E-2 -1.4395751447489877E-1
3.8074662195423076E-2 -1.4493329453118603E-1
2.2839036568673407E-2 -1.443614867314316E-1
8.107832795021964E-3 -1.4232325117893174E-1
-5.9910833552918605E-3 -1.389109812054751E-1
-1.0270621061343449E-1 3.1661124216873016E-1
-1.9342607688281558E-2 -1.3422680133413467E-1
-1.027332411676359E-1 3.166235728425247E-1
-6.890359325218953E-2 3.1727925889463E-1
-3.600614288876178E-2 3.146242599608578E-1
-4.335575917301954E-3 3.088466969692356E-1
2.584038304527437E-2 3.001578434650738E-1
5.428243228154241E-2 2.8878882117144267E-1
8.07807902481163E-2 2.7498725003837365E-1
1.0515593469836718E-1 2.5901388965250116E-1
1.2725899331963422E-1 2.4113930714574064E-1
1.4697179865699855E-1 2.2164060479715042E-1
1.6420662300222424E-1 2.0079823830096274E-1
1.7890561143067815E-1 1.788929542219539E-1
1.9103993341454895E-1 1.56202872594415E-1
2.0060867537757976E-1 1.330007378370711E-1
2.0763749809469242E-1 1.0955135828656817E-1
2.1217708415338102E-1 8.610925171797956E-2
2.1430140160706926E-1 6.291651129866332E-2
2.1410581062251016E-1 4.0200903334562915E-2
2.1170504020899972E-1 1.817420532433165E-2
2.072310622179306E-1 -2.9692100835382223E-3
2.0083088956480688E-1 -2.3053542496172884E-2
1.926643251427609E-1 -4.192248241295155E-2
1.8290168715870192E-1 -5.943988361247385E-2
1.7172153564441375E-1 -7.549019418474731E-2
1.5930842373007495E-1 -8.997865342958769E-2
1.4585069585094257E-1 -1.028312638925058E-1
1.315383535266602E-1 -1.1399454966793171E-1
1.165610076088815E-1 -1.234351138568184E-1
1.0110593411302873E-1 -1.3113900954027777E-1
8.535624874104066E-2 -1.3711093978268699E-1
6.948921328164369E-2 -1.4137330328901698E-1
5.367468510533154E-2 -1.4396510316641065E-1
3.807371879881819E-2 -1.449407367096494E-1
2.2837327019470867E-2 -1.4436868458162894E-1
8.105405702539937E-3 -1.42330117846463E-1
-5.994173272428461E-3 -1.389174412821021E-1
-1.3717526828583929E-1 3.1249545424922737E-1
-1.9346300729180355E-2 -1.3423279117150344E-1
-1.3720410357875687E-1 3.1250526892595404E-1
-1.0275904181005804E-1 3.166358962991252E-1
-6.892625117599037E-2 3.1729359919382466E-1
-3.6025611702426456E-2 3.146401388546465E-1
-4.351866563976412E-3 3.0886365620111195E-1
2.582720727437786E-2 3.001754502635556E-1
5.4272261260006976E-2 2.888066729066911E-1
8.077347293133692E-2 2.750049780245145E-1
1.0515128531252782E-1 2.590311621108284E-1
1.272567977058451E-1 2.4115583133545573E-1
1.4697182065086964E-1 2.2165612833590595E-1
1.64208610715907E-1 2.008125497364183E-1
1.7890930332961305E-1 1.7890588288381537E-1
1.9104506406637956E-1 1.56214287779996E-1
2.006149807663638E-1 1.3301054740146578E-1
2.0764472039986573E-1 1.0955950669346634E-1
2.1218497591047034E-1 8.611571762331278E-2
2.143097291888888E-1 6.292130474518033E-2
2.1411435701066858E-1 4.020406262905851E-2
2.1171360705197378E-1 1.8175793696564167E-2
2.072394712004989E-1 -2.969107952156316E-3
2.008389831613848E-1 -2.305482399050235E-2
1.9267196682118326E-1 -4.192503045816855E-2
1.8290876113240576E-1 -5.944357002874152E-2
1.7172794627520327E-1 -7.54948828613924E-2
1.5931409466793076E-1 -8.998420328339227E-2
1.4585556899363059E-1 -1.0283753157315541E-1
1.3154238786083722E-1 -1.1400139200430905E-1
1.1656417798156575E-1 -1.2344239004097869E-1
1.0110822996679074E-1 -1.3114658305626037E-1
8.535767283140615E-2 -1.3711868009618935E-1
6.948978039312195E-2 -1.4138108730228535E-1
5.367442077679334E-2 -1.4397281645391038E-1
3.807265805736899E-2 -1.4494827454440046E-1
2.283551313218916E-2 -1.4437595275708773E-1
8.102888958596706E-3 -1.423370332978964E-1
-5.997336747138445E-3 -1.3892393252397076E-1
-1.7191861485144094E-1 3.0476943413332974E-1
-1.9350050118297036E-2 -1.3423879855577017E-1
-1.7194903396152691E-1 3.0477649797879247E-1
-1.3723167865977523E-1 3.1251520445222447E-1
-1.0278361213573944E-1 3.166482104232247E-1
-6.894772043916012E-2 3.173078069254429E-1
-3.60439442097934E-2 3.1465577018362945E-1
-4.367082693909021E-3 3.088802622094776E-1
2.5815036219270157E-2 3.001926084243956E-1
5.426301868822884E-2 2.88823991539928E-1
8.076700296068556E-2 2.750220998922039E-1
1.051473989987347E-1 2.590477671712953E-1
1.2725527937379907E-1 2.4117163867384273E-1
1.4697243421669376E-1 2.216708972959097E-1
1.642111058693637E-1 2.0082608029928542E-1
1.789134214592122E-1 1.789180153468402E-1
1.9105054382255446E-1 1.5622490178850199E-1
2.0062156315405436E-1 1.3301956039854218E-1
2.0765215331652384E-1 1.0956687185625713E-1
2.12193018063398E-1 8.612142135473265E-2
2.143181533442723E-1 6.292536380489328E-2
2.1412295255159342E-1 4.020652098884411E-2
2.117221818614588E-1 1.8176719204735764E-2
2.0724785290923814E-1 -2.9696270106195684E-3
2.0084701981667147E-1 -2.3056682349351987E-2
1.926795270550271E-1 -4.19281092636218E-2
1.8291573391990762E-1 -5.9447740116526995E-2
1.7173424036445814E-1 -7.550000784829153E-2
1.5931963775981406E-1 -8.999014244197952E-2
1.4586030674178985E-1 -1.0284414246904444E-1
1.3154628275369926E-1 -1.1400853288773925E-1
1.1656720814305425E-1 -1.2344992198771897E-1
1.0111038790072034E-1 -1.311543718544972E-1
8.535896414274138E-2 -1.3712659790363518E-1
6.949022249253402E-2 -1.4138901406218599E-1
5.36740415857109E-2 -1.4398064109005165E-1
3.807149472375304E-2 -1.4495589594242442E-1
2.2833610764629583E-2 -1.4438328053502006E-1
8.100299391718037E-3 -1.4234398837538947E-1
-6.000556149725524E-3 -1.3893044749466602E-1
-2.0657240328853588E-1 2.9333222166951484E-1
-1.935383761624524E-2 -1.342448178698671E-1
-2.066041568157897E-1 2.9333631779936337E-1
-1.7197817517191302E-1 3.0478381765988494E-1
-1.3725799297981503E-1 3.1252525843363843E-1
-1.0280695167990327E-1 3.1666051155766994E-1
-6.896800080917552E-2 3.173218776062301E-1
-3.606114046739836E-2 3.1467114905411536E-1
-4.381224634230831E-3 3.088965100871184E-1
2.5803869366699882E-2 3.002093133922362E-1
5.425470400487012E-2 2.8884077318913787E-1
8.0761379894572E-2 2.7503861271208696E-1
1.0514427561163743E-1 2.5906370309087406E-1
1.2725443864798103E-1 2.4118672878428143E-1
1.4697364029860704E-1 2.2168491278690533E-1
1.64214110132106E-1 2.0083883265636698E-1
1.789179682682717E-1 1.7892935585810812E-1
1.9105637590413513E-1 1.5623472042419595E-1
2.006284264722526E-1 1.3302778412828556E-1
2.076598013816251E-1 1.0957346247568224E-1
2.1220121561694594E-1 8.61263729049599E-2
2.1432667939578534E-1 6.292869965080888E-2
2.1413160274726348E-1 4.0208290656349156E-2
2.1173077021562292E-1 1.8176995058107798E-2
2.0725621294271696E-1 -2.9707531718982535E-3
2.0085500515534577E-1 -2.305910268985863E-2
1.926870115656911E-1 -4.193170323962719E-2
1.8292261145975525E-1 -5.9452377666887934E-2
1.7174042422607497E-1 -7.550555241528796E-2
1.5932505987750353E-1 -8.999645377978521E-2
1.4586491671836377E-1 -1.0285107921991674E-1
1.3155004675752893E-1 -1.1401595491189351E-1
1.1657010772116905E-1 -1.2345769245696717E-1
1.0111241872694862E-1 -1.3116235909915303E-1
8.536013472866152E-2 -1.3713467701762933E-1
6.949055288351226E-2 -1.413970682810925E-1
5.367356204621551E-2 -1.4398856293020462E-1
3.807024443648667E-2 -1.4496358812999546E-1
2.283163655273617E-2 -1.4439065671305282E-1
8.097654474080269E-3 -1.4235097361020035E-1
-6.003813360157148E-3 -1.3893697857414958E-1
-2.407551134538121E-1 2.7811805065713585E-1
-1.9357644652656797E-2 -1.3425084338376406E-1
-2.4078792480667136E-1 2.781189834393619E-1
-2.0663462836277455E-1 2.933408107215706E-1
-1.7200603773733775E-1 3.0479139050496057E-1
-1.372830458334972E-1 3.125354267388411E-1
-1.0282906000371991E-1 3.1667279456773395E-1
-6.898709224365517E-2 3.1733580554545837E-1
-3.607720087147049E-2 3.146862696488431E-1
-4.394293180680958E-3 3.089123942842952E-1
2.5793705620727886E-2 3.0022556024704994E-1
5.4247315955219165E-2 2.888570138854781E-1
8.075660249201333E-2 2.750545137345423E-1
1.0514191410410709E-1 2.590789685547655E-1
1.2725427484354976E-1 2.412011019499552E-1
1.469754387159986E-1 2.2169817680162987E-1
1.642176239302353E-1 2.0085081056560897E-1
1.7892294484657942E-1 1.789399099442422E-1
1.9106256207419753E-1 1.5624375094176207E-1
2.00635573116819E-1 1.3303522750086333E-1
2.0766766754815105E-1 1.0957928902168389E-1
2.122095719888221E-1 8.613058418644726E-2
2.143353111286535E-1 6.293132551564685E-2
2.1414031167151285E-1 4.020938606251292E-2
2.1173937643104718E-1 1.8176636765003987E-2
2.072645558583065E-1 -2.972469969121989E-3
2.008629440186073E-1 -2.3062067700660358E-2
1.926944255644083E-1 -4.1935794344219804E-2
1.8292939946259787E-1 -5.945746404225046E-2
1.7174650422438906E-1 -7.551149748306248E-2
1.5933036819841365E-1 -9.000311794606354E-2
1.45869407064942E-1 -1.0285832239405936E-1
1.315536891118959E-1 -1.1402363878607613E-1
1.1657288715257158E-1 -1.2346568253715517E-1
1.0111433413751877E-1 -1.3117052650720856E-1
8.536119755140655E-2 -1.3714290004166202E-1
6.94907857610155E-2 -1.414052336936383E-1
5.367299750466611E-2 -1.4399656707246078E-1
3.8068923573230884E-2 -1.449713377731223E-1
2.282960775090568E-2 -1.4439806970416025E-1
8.094972153213397E-3 -1.4235797929271052E-1
-6.007089934076565E-3 -1.3894351799923554E-1
-2.7407079612039137E-1 2.5909886751266475E-1
-1.9361452481003367E-2 -1.3425686931837896E-1
-2.7410436314454795E-1 2.5909646575734824E-1
-2.408194646303619E-1 2.7812045883764297E-1
-2.0666381691692803E-1 2.9334569746613876E-1
-1.7203262060744873E-1 3.047992118855883E-1
-1.373068364436278E-1 3.125457035527385E-1
-1.0284993680605091E-1 3.1668505292100596E-1
-6.900499502232982E-2 3.1734958394716123E-1
-3.609212629946776E-2 3.1470112533958133E-1
-4.406289755879355E-3 3.0892790874362214E-1
2.578454313010677E-2 3.0024134385609796E-1
5.4240852414543725E-2 2.888727097304904E-1
8.075266853148443E-2 2.7506980055318664E-1
1.0514031234195069E-1 2.590935628519435E-1
1.272547860843618E-1 2.412147593012073E-1
1.4697782799712192E-1 2.217106923982943E-1
1.6422164630688027E-1 2.0086201904920736E-1
1.7892835081618436E-1 1.7894968458453797E-1
1.910691025568369E-1 1.5625200222684654E-1
2.00643003906598E-1 1.3304190121765064E-1
2.076757531913831E-1 1.0958436390128397E-1
2.1221808906133402E-1 8.613406918574852E-2
2.1434405088636838E-1 6.293325682659198E-2
2.1414908209939723E-1 4.020982393312704E-2
2.117480037144624E-1 1.8175662208120884E-2
2.0727288532675237E-1 -2.9747585047777267E-3
2.008708406142968E-1 -2.3065557622625514E-2
1.927017738992881E-1 -4.1940362117234696E-2
1.829361035374219E-1 -5.946297824952636E-2
1.7175248686454245E-1 -7.551782171534754E-2
1.593355702593479E-1 -9.00101134761803E-2
1.4587378646646315E-1 -1.0286585062739176E-1
1.3155721973806864E-1 -1.1403156348816051E-1
1.1657555764862206E-1 -1.2347387180680855E-1
1.0111614664394125E-1 -1.3117885451430192E-1
8.536216638917954E-2 -1.3715124852114394E-1
6.949093609505934E-2 -1.4141349319556534E-1
5.367236400988725E-2 -1.440046379834991E-1
3.806754911084116E-2 -1.449791310997262E-1
2.282754208154093E-2 -1.4440550763708654E-1
8.092270700545547E-3 -1.4236499554767126E-1
-6.010367253473158E-3 -1.3895005794312823E-1
-3.061126401510058E-1 2.362865687349555E-1
-1.9365242341340877E-2 -1.3426288991229643E-1
-3.0614663712947887E-1 2.3628068881031264E-1
-2.741366844952724E-1 2.5909475611628036E-1
-2.4084973158387232E-1 2.7812247359112824E-1
-2.066917209790606E-1 2.9335097290141776E-1
-1.7205792252317512E-1 3.048072752802782E-1
-1.3732936407914983E-1 3.1255608145629143E-1
-1.028695820608821E-1 3.1669727878473725E-1
-6.902170990422343E-2 3.1736320503088095E-1
-3.610591828634052E-2 3.147157088307901E-1
-4.417216589091162E-3 3.089430470487439E-1
2.5776379102479728E-2 3.002566590330277E-1
5.423531019999102E-2 2.888878570632452E-1
8.074957462852105E-2 2.7508447127618735E-1
1.0513946693089776E-1 2.5910748604302963E-1
1.272559691452065E-1 2.4122770297858034E-1
1.4698080523679624E-1 2.2172246387127972E-1
1.6422617479679744E-1 2.00872464573046E-1
1.7893418423962726E-1 1.7895868838237025E-1
1.910759959888109E-1 1.562594849534056E-1
2.0065071807053447E-1 1.330478179249968E-1
2.076840581356617E-1 1.095887016028204E-1
2.122267672456821E-1 8.613684408744719E-2
2.1435289966632223E-1 6.293451130896352E-2
2.1415791562739508E-1 4.020962336968462E-2
2.1175665429821497E-1 1.817409169333851E-2
2.0728120427813396E-1 -2.9775974447812273E-3
2.0087869865204333E-1 -2.3069550275430915E-2
1.927090611665901E-1 -4.194538373061144E-2
1.829427292840756E-1 -5.946889702854869E-2
1.7175837886080747E-1 -7.55245016427655E-2
1.5934067399067342E-1 -9.001741693142759E-2
1.458780641484234E-1 -1.0287364077156316E-1
1.3156064920282795E-1 -1.1403970642363924E-1
1.1657813112877718E-1 -1.2348223849220706E-1
1.0111786948673908E-1 -1.311873224317171E-1
8.536305573098202E-2 -1.3715970310136777E-1
6.949101951183552E-2 -1.4142182899616854E-1
5.3671678173905654E-2 -1.4401275963195806E-1
3.806613847052536E-2 -1.449869540009467E-1
2.282545757831683E-2 -1.4441295844530563E-1
8.0895685532123E-3 -1.423720124173714E-1
-6.01362668975228E-3 -1.3895659058236545E-1
-3.364668405854753E-1 2.0973491854474158E-1
-1.9368995625863025E-2 -1.3426889944121295E-1
-3.365009205972601E-1 2.0972544733856974E-1
-3.0617943048653584E-1 2.362756528534915E-1
-2.741677584278533E-1 2.590937350371565E-1
-2.4087872359966578E-1 2.781250220583691E-1
-2.0671833865873793E-1 2.9335662978687144E-1
-1.7208194214573222E-1 3.0481557235902257E-1
-1.373506282056481E-1 3.125665515346334E-1
-1.02887996182869E-1 3.167094631528995E-1
-6.903723829715773E-2 3.173766601681107E-1
-3.61185791979598E-2 3.147300123066762E-1
-4.427076896550193E-3 3.089578025839937E-1
2.5769209627744902E-2 3.002715007025767E-1
5.4230684894395156E-2 2.889024526340132E-1
8.07473160647965E-2 2.750985247033078E-1
1.0513937305481896E-1 2.591207391429729E-1
1.27257819303502E-1 2.4123993631786153E-1
1.469843659746341E-1 2.217334969261421E-1
1.6423120533667282E-1 2.0088215521225986E-1
1.789404415549878E-1 1.789669317345007E-1
1.910832393893859E-1 1.5626621174535008E-1
2.006587132601887E-1 1.3305299235198384E-1
2.076925807020838E-1 1.0959231881512255E-1
2.1223560556386686E-1 8.613892737458625E-2
2.143618572262524E-1 6.293510905943016E-2
2.1416681279769373E-1 4.020880589272554E-2
2.1176532956995311E-1 1.817194796543699E-2
2.07289515027555E-1 -2.9809630331529492E-3
2.008865214686383E-1 -2.3074021114556444E-2
1.9271629181977695E-1 -4.195083407951315E-2
1.8294928237214553E-1 -5.947519495911597E-2
1.7176418718948394E-1 -7.553151179350714E-2
1.593456877424209E-1 -9.002500305541732E-2
1.4588224987601892E-1 -1.0288166806100264E-1
1.3156398869084557E-1 -1.1404804359670577E-1
1.1658062016369151E-1 -1.2349075963850613E-1
1.0111951655375243E-1 -1.3119590860778185E-1
8.536388067048709E-2 -1.371682436762015E-1
6.949105216640468E-2 -1.4143022274953557E-1
5.367095703860603E-2 -1.4402091561380553E-1
3.806470937843107E-2 -1.4499479214517974E-1
2.2823372439539885E-2 -1.444204099572924E-1
8.086884160143975E-3 -1.4237901993987748E-1
-6.016849766252877E-3 -1.3896310815128188E-1
-3.6471674101045787E-1 1.7954110939964335E-1
-1.9372694051682328E-2 -1.34274892242725E-1
-3.647505386390578E-1 1.795279671093694E-1
-3.365338559429109E-1 2.0971697288559504E-1
-3.0621101799893385E-1 2.3627145702752764E-1
-2.7419758219133195E-1 2.59093396371839E-1
-2.4090643800091896E-1 2.7812809627373236E-1
-2.0674366781934048E-1 2.9336265885676216E-1
-1.7210467821860914E-1 3.0482409308298253E-1
-1.3737062866230537E-1 3.1257710349785445E-1
-1.0290518021307804E-1 3.16721595985164E-1
-6.905158245370552E-2 3.173899400393297E-1
-3.613011242564128E-2 3.147440275986539E-1
-4.435875075859622E-3 3.0897216871360356E-1
2.5763029485850453E-2 3.00285864086009E-1
5.4226970665809615E-2 2.8891649378871415E-1
8.074588661891914E-2 2.7511196051125075E-1
1.0514002432640042E-1 2.591333243016763E-1
1.272603302119208E-1 2.4125146402557374E-1
1.4698850408922526E-1 2.2174379885188872E-1
1.642367321917934E-1 2.0089110080936226E-1
1.789471175413653E-1 1.78974426968437E-1
1.9109082815545525E-1 1.5627219730551592E-1
2.006669855754735E-1 1.3305744143091694E-1
2.077013177635075E-1 1.0959523452941555E-1
2.122446017294866E-1 8.614033990577247E-2
2.1437092218674844E-1 6.293507259810369E-2
2.1417577321278616E-1 4.020739546073497E-2
2.1177403019484559E-1 1.8169256190728282E-2
2.0729781938573602E-1 -2.9848291345298122E-3
2.0089431211494505E-1 -2.3078943292031435E-2
1.9272347024205846E-1 -4.195668587597883E-2
1.82955768593469E-1 -5.948184458814498E-2
1.7176991911026582E-1 -7.553882483099694E-2
1.5935062027486716E-1 -9.003284492065199E-2
1.4588635391240212E-1 -1.028899062686706E-1
1.3156724993925542E-1 -1.1405654976810697E-1
1.1658303789246502E-1 -1.2349941127053847E-1
1.0112110227559452E-1 -1.312045905857562E-1
8.536465678804314E-2 -1.3717684953793063E-1
6.949105061059294E-2 -1.414386556942982E-1
5.367021792770303E-2 -1.4402908926885089E-1
3.806327971328179E-2 -1.4500263108738473E-1
2.282130486786382E-2 -1.4442785000368794E-1
8.084235815578643E-3 -1.4238600822488617E-1
-6.02001833377749E-3 -1.3896960298414346E-1
-3.904472191589827E-1 1.4584693017125425E-1
-1.9376319837334923E-2 -1.342808627815995E-1
-3.904803535522786E-1 1.4583007286896935E-1
-3.6478326807129285E-1 1.795159737626753E-1
-3.365656438392043E-1 2.0970949107788886E-1
-3.062413960991931E-1 2.3626809469177254E-1
-2.742261521474394E-1 2.590937314354149E-1
-2.4093287164899801E-1 2.7813168603012195E-1
-2.067677062502225E-1 2.9336904892580495E-1
-1.721261297545257E-1 3.048328258327147E-1
-1.373893658580273E-1 3.125877258234724E-1
-1.0292113601891019E-1 3.167336663652462E-1
-6.90647456699188E-2 3.174030348036268E-1
-3.614052258576984E-2 3.1475774636445425E-1
-4.4436168938039415E-3 3.0898613896264054E-1
2.57578319686868E-2 3.002997448851892E-1
5.422416010216573E-2 2.889299786525646E-1
8.074527842039039E-2 2.751247794310634E-1
1.0514141265830974E-1 2.591452449771538E-1
1.2726349379571836E-1 2.412622923451753E-1
1.469932117229652E-1 2.2175337867904513E-1
1.6424274790401894E-1 2.0089931313103634E-1
1.789542052980439E-1 1.789811884864518E-1
1.9109875607474527E-1 1.5627745853717698E-1
2.0067552960808524E-1 1.3306118439691064E-1
2.0771026481702992E-1 1.095974701148034E-1
2.122537522391707E-1 8.614110496459872E-2
2.143800921372908E-1 6.293442688633166E-2
2.1418479564305642E-1 4.020541846515337E-2
2.1178275621928636E-1 1.816604392329353E-2
2.0730611876680596E-1 -2.9891673109623406E-3
2.0090207345257194E-1 -2.3084287769571225E-2
1.927306008146262E-1 -4.196290977342789E-2
1.8296219390386131E-1 -5.948881656624027E-2
1.7177558218514424E-1 -7.554641171512737E-2
1.5935548075647976E-1 -9.004091410094522E-2
1.4589038699656146E-1 -1.028983278847595E-1
1.315704451852885E-1 -1.1406519863453632E-1
1.1658539794550825E-1 -1.2350816856285385E-1
1.0112264153279743E-1 -1.312133452689348E-1
8.536540003787792E-2 -1.3718549953122408E-1
6.949103167128752E-2 -1.4144710879374672E-1
5.3669478314653324E-2 -1.4403726380847331E-1
3.8061867361387725E-2 -1.4501045637094276E-1
2.2819272918917173E-2 -1.4443526649635316E-1
8.081641497698903E-3 -1.4239296752693223E-1
-6.023114728906631E-3 -1.3897606760128592E-1
-4.13249280574384E-1 1.0883950914397461E-1
-1.9379855854883474E-2 -1.3428680572277135E-1
-4.1328135882206996E-1 1.0881893105904245E-1
-3.9051251423263783E-1 1.4581451447015936E-1
-3.648149258752637E-1 1.7950512499443333E-1
-3.3659627976815987E-1 2.0970299480484936E-1
-3.062705600161031E-1 2.3626555646195394E-1
-2.7425346394553196E-1 2.590947290876616E-1
-2.4095802114045695E-1 2.781357789847216E-1
-2.0679045187677034E-1 2.9337578701190986E-1
-1.7214629625269995E-1 3.0484175754888204E-1
-1.3740684099003048E-1 3.1259840591724186E-1
-1.0293586651155538E-1 3.167456626722608E-1
-6.907673249486883E-2 3.1741593427867515E-1
-3.614981571697476E-2 3.147711602711241E-1
-4.450309675066586E-3 3.089997072028015E-1
2.5753608707810568E-2 3.003131394672334E-1
5.4222244053879015E-2 2.8894290631319486E-1
8.074548181126595E-2 2.7513698342906223E-1
1.0514352814841775E-1 2.591565061082782E-1
1.2726730016073665E-1 2.412724292190497E-1
1.4699847922221343E-1 2.2176224732483418E-1
1.6424924326434698E-1 2.0090680599241928E-1
1.7896169624497543E-1 1.7898723287682414E-1
1.9110701535768043E-1 1.56282014634522E-1
2.0068433849873096E-1 1.33064242853157E-1
2.0771941606239416E-1 1.0959904935796735E-1
2.1226305246689708E-1 8.614124827446944E-2
2.1438936373612405E-1 6.293319931634714E-2
2.1419387813448346E-1 4.020290368469653E-2
2.117915071685724E-1 1.816234103521283E-2
2.0731441426449337E-1 -2.9939469071276607E-3
2.0090980821601498E-1 -2.309002342539583E-2
1.9273768796464524E-1 -4.196947450897342E-2
1.82968564448802E-1 -5.9496079810812E-2
1.717811842735055E-1 -7.555424186522679E-2
1.5936027872837832E-1 -9.004918084183594E-2
1.4589436028255298E-1 -1.0290690428583386E-1
1.3157358708964692E-1 -1.1407396299696672E-1
1.1658771434697596E-1 -1.2351700600669532E-1
1.0112414953895588E-1 -1.3122214907179322E-1
8.536612661808549E-2 -1.371941721932096E-1
6.949101230544505E-2 -1.4145556286076305E-1
5.3668755675779285E-2 -1.4404542243488724E-1
3.8060490062076055E-2 -1.4501825364186166E-1
2.281729433769695E-2 -1.4444264752534836E-1
8.079118701295702E-3 -1.423998883286424E-1
-6.0261219415135995E-3 -1.3898249477897492E-1
-4.3272482099052234E-1 6.875160193023874E-2
-1.938328578295001E-2 -1.3429271596786865E-1
-4.327554418151308E-1 6.872733747411443E-2
-4.133125762416269E-1 1.0879979790651644E-1
-3.905436970293164E-1 1.4580025038951455E-1
-3.648455064379303E-1 1.7949541326220902E-1
-3.366257576294118E-1 2.0969747401205294E-1
-3.062985039558227E-1 2.3626383028500073E-1
-2.7427951273034157E-1 2.590963758336166E-1
-2.409818830314072E-1 2.7814036078125537E-1
-2.0681190299453686E-1 2.9338285848586126E-1
-1.7216517793562344E-1 3.048508738989147E-1
-1.3742305627632195E-1 3.1260913029108695E-1
-1.0294937586860665E-1 3.167575727680402E-1
-6.908754894467702E-2 3.174286281337008E-1
-3.615799948215135E-2 3.1478426119521824E-1
-4.455962487312664E-3 3.0901286785314586E-1
2.575034950663689E-2 3.003260450627151E-1
5.422121149112375E-2 2.8895527700976587E-1
8.074648522681366E-2 2.7514857588402597E-1
1.0514635899002837E-1 2.5916711427707423E-1
1.2727173753256904E-1 2.4128188443421741E-1
1.4700429510132207E-1 2.217704177265226E-1
1.6425620730913232E-1 2.009135953717028E-1
1.7896958014483166E-1 1.7899257900518684E-1
1.9111559667952266E-1 1.5628588715667496E-1
2.0069340400137614E-1 1.3306664082274602E-1
2.077287644797052E-1 1.0959999849060446E-1
2.1227249675489737E-1 8.61407979963222E-2
2.1439873280628496E-1 6.293141968048781E-2
2.142030181005376E-1 4.01998822264411E-2
2.1180028213902E-1 1.8158179625041185E-2
2.073227067305352E-1 -2.999135167937248E-3
2.0091751906773206E-1 -2.3096117189930754E-2
1.9274473619326066E-1 -4.197634704143768E-2
1.8297488657141356E-1 -5.950360166057873E-2
1.7178673352621893E-1 -7.556228333432953E-2
1.5936502407851538E-1 -9.005761423628045E-2
1.4589828529060753E-1 -1.0291560591623407E-1
1.3157668866416247E-1 -1.1408281493460615E-1
1.1659000142688208E-1 -1.2352589757591304E-1
1.0112564173757266E-1 -1.3123097808221118E-1
8.536685285932709E-2 -1.3720284590782508E-1
6.949100948089514E-2 -1.4146399870665186E-1
5.366806735229513E-2 -1.4405354846627919E-1
3.8059165261416034E-2 -1.450260087578589E-1
2.281538640590127E-2 -1.4444998146157312E-1
8.076684288880804E-3 -1.424067614356192E-1
-6.029023765296291E-3 -1.389888776112877E-1
-4.4849151429863465E-1 2.5861397977993267E-2
-1.93865942813617E-2 -1.342985886939812E-1
-4.4852027200033956E-1 2.5833523388514263E-2
-4.3278533335116126E-1 6.870465823956601E-2
-4.1334292782418275E-1 1.087821049108861E-1
-3.905738950789803E-1 1.4578727269694158E-1
-3.648750021311755E-1 1.794868278901472E-1
-3.3665406994982455E-1 2.0969291577531596E-1
-3.063252213405794E-1 2.3626290154100946E-1
-2.743042933960658E-1 2.590986559511088E-1
-2.4100445409727234E-1 2.781454151968584E-1
-2.0683205852208014E-1 2.9339024722596974E-1
-1.721827759957568E-1 3.0486015944779404E-1
-1.374380151929159E-1 3.1261988474297997E-1
-1.0296166976159855E-1 3.167693841875906E-1
-6.909720271258812E-2 3.174411060844207E-1
-3.6165083360198684E-2 3.147970414138865E-1
-4.460586311596394E-3 3.0902561606575735E-1
2.5748042193798684E-2 3.0033845994131103E-1
5.4221049377375645E-2 2.889670923031099E-1
8.074827509288408E-2 2.7515956174880296E-1
1.0514989139135886E-1 2.591770778599202E-1
1.2727679220534843E-1 2.4129066976159244E-1
1.4701064601807007E-1 2.21777904960747E-1
1.642636273174175E-1 2.0091969951001548E-1
1.7897784513104617E-1 1.789972480899228E-1
1.9112448923293554E-1 1.5628910007414148E-1
2.0070271655396024E-1 1.3306840476899345E-1
2.0773830191642387E-1 1.096003461802056E-1
2.1228207850477365E-1 8.613978469086934E-2
2.1440819442910491E-1 6.29291201069973E-2
2.142122124066324E-1 4.0196387442671684E-2
2.118090798678702E-1 1.8153593909170047E-2
2.073309968341259E-1 -3.004697370513755E-3
2.0092520864273056E-1 -2.3102534200508177E-2
1.9275175010330867E-1 -4.198349273053095E-2
1.8298116680959262E-1 -5.951134805282749E-2
1.7179223835460294E-1 -7.557050299026953E-2
1.5936972699030166E-1 -9.006618241150702E-2
1.4590217383738383E-1 -1.0292440247027608E-1
1.3157976318559034E-1 -1.1409172598722467E-1
1.1659227371798182E-1 -1.2353481689862861E-1
1.0112713368662465E-1 -1.3123980822134748E-1
8.536759508958677E-2 -1.3721149904553667E-1
6.949104002774245E-2 -1.4147239726406807E-1
5.3667430398548335E-2 -1.440616254554839E-1
3.80579099553498E-2 -1.4503370789376185E-1
2.2813565785525965E-2 -1.4445725705025358E-1
8.07435433056591E-3 -1.4241357805184923E-1
-6.031804959487984E-3 -1.389952095839786E-1
-4.6018777929987664E-1 -1.950817700197928E-2
-1.9389767157337676E-2 -1.343044194199152E-1
-4.602142679885702E-1 -1.953954236189087E-2
-4.485484507476815E-1 2.580736671202752E-2
-4.328144896490515E-1 6.868355930950695E-2
-4.133724052892576E-1 1.0876584381193517E-1
-3.906030990108653E-1 1.457755701608671E-1
-3.649034035437802E-1 1.7947935514298066E-1
-3.3668120814164004E-1 2.0968930439946418E-1
-3.063507050842193E-1 2.3626275316578385E-1
-2.743278008635613E-1 2.591015516285873E-1
-2.4102573161356192E-1 2.7815092430589783E-1
-2.06850918280684E-1 2.933979358057304E-1
-1.7219909286314714E-1 3.048695978559732E-1
-1.3745172272650422E-1 3.126306545654538E-1
-1.0297275558522309E-1 3.167810843450997E-1
-6.91057033779668E-2 3.1745335809756653E-1
-3.617107883029901E-2 3.1480949380724826E-1
-4.464194203652714E-3 3.090379479217707E-1
2.5746672486424826E-2 3.0035038360037225E-1
5.422174256313639E-2 2.889783552457197E-1
8.075083575025095E-2 2.751699477019582E-1
1.0515410952803994E-1 2.5918640716214975E-1
1.2728244851836298E-1 2.4129879906701596E-1
1.470175167812154E-1 2.2178472633450294E-1
1.6427148884399181E-1 2.0092513898104866E-1
1.7898647775700735E-1 1.7900126375054565E-1
1.9113368079634346E-1 1.5629167979199574E-1
2.0071226535843276E-1 1.330695635902422E-1
2.0774801917250477E-1 1.0960012350212318E-1
2.122917902644255E-1 8.613824126812604E-2
2.1441774302782243E-1 6.292633497791385E-2
2.142214574514916E-1 4.019245481849303E-2
2.118178988006199E-1 1.814862009463772E-2
2.073392851111003E-1 -3.010596971342558E-3
2.0093287957720693E-1 -2.3109237959895862E-2
1.927587344094108E-1 -4.199087550709764E-2
1.8298741189570025E-1 -5.9519283713013835E-2
1.7179770740798989E-1 -7.557886670212849E-2
1.5937439789610852E-1 -9.007485271147785E-2
1.459060379693758E-1 -1.0293326307115386E-1
1.3158282411238603E-1 -1.1410066732596401E-1
1.165945458582747E-1 -1.2354373742297782E-1
1.011286409475356E-1 -1.3124861539941443E-1
8.53683695207882E-2 -1.3722011011911742E-1
6.949112051727001E-2 -1.414807397322827E-1
5.366686144953825E-2 -1.4406963732072925E-1
3.8056740551483906E-2 -1.4504133766515898E-1
2.281184837506174E-2 -1.444644635189934E-1
8.072143949467354E-3 -1.4242032986671332E-1
-6.034451420119768E-3 -1.3900148463678919E-1
-4.6747777534752016E-1 -6.699068087305445E-2
-1.939279151801757E-2 -1.3431020407312602E-1
-4.675015933796799E-1 -6.70253736384095E-2
-4.602403468351122E-1 -1.9569066655655304E-2
-4.4857604353307057E-1 2.5782922939781107E-2
-4.328429008420631E-1 6.866403217685801E-2
-4.13400997299168E-1 1.0875100291075537E-1
-3.9063129720811646E-1 1.4576512831859043E-1
-3.6493069977185016E-1 1.7947297831818143E-1
-3.367071628079955E-1 2.0968662153250192E-1
-3.063749479078103E-1 2.362633657940928E-1
-2.7435003039737627E-1 2.591050431327406E-1
-2.4104571365431254E-1 2.781568686549464E-1
-2.0686848327824892E-1 2.9340590568114283E-1
-1.7221413246986353E-1 3.048791720749521E-1
-1.3746418561758128E-1 3.126414247442859E-1
-1.0298264267965267E-1 3.167926607370937E-1
-6.911306260240871E-2 3.1746537458919055E-1
-3.6175999546826404E-2 3.1482161205176395E-1
-4.466801441581767E-3 3.090498606161406E-1
2.5746223868277674E-2 3.003618169366546E-1
5.422327368623685E-2 2.8898907054448697E-1
8.075414938163811E-2 2.751797422888744E-1
1.0515899550143466E-1 2.591951145362676E-1
1.2728868884224911E-1 2.4130628841151697E-1
1.4702489035855973E-1 2.217909014565159E-1
1.642797757522589E-1 2.009299367346709E-1
1.7899546304974936E-1 1.7900465202466906E-1
1.911431577994241E-1 1.562936551442585E-1
2.0072203845796463E-1 1.3307014859069474E-1
2.0775790608550176E-1 1.0959936387696298E-1
2.123016238158362E-1 8.613620289604752E-2
2.1442737244892482E-1 6.29231008204722E-2
2.142307492349864E-1 4.018812184101333E-2
2.1182673714680808E-1 1.814329622798821E-2
2.0734757200231968E-1 -3.0167957703704537E-3
2.0094053452897193E-1 -2.3116190515638367E-2
1.9276569393217824E-1 -4.1998458054727836E-2
1.829936287240905E-1 -5.952737233594888E-2
1.7180314952714126E-1 -7.55873395319969E-2
1.593790474151214E-1 -9.008359188889163E-2
1.4590988988471423E-1 -1.0294215645655787E-1
1.3158588499087237E-1 -1.1410960993197132E-1
1.1659683248572854E-1 -1.2355263258666858E-1
1.0113017896897004E-1 -1.3125737567721948E-1
8.536919211393791E-2 -1.3722865792533206E-1
6.949126712093523E-2 -1.4148900771220468E-1
5.366637657762983E-2 -1.440775684718529E-1
3.8055672719884096E-2 -1.4504888523590903E-1
2.2810249152377112E-2 -1.4447159067146154E-1
8.07006716195539E-3 -1.4242700914853018E-1
-6.036950327467891E-3 -1.3900769726699572E-1
-4.7005637401307987E-1 -1.1617791067984766E-1
-1.9395655945076522E-2 -1.3431593908410294E-1
-4.700771285959608E-1 -1.162157230365432E-1
-4.6752518931071163E-1 -6.705811369895331E-2
-4.602660076587137E-1 -1.959675490648617E-2
-4.4860303871378304E-1 2.5760183411138768E-2
-4.3287055337992814E-1 6.864606477751152E-2
-4.134286897425141E-1 1.0873756712354567E-1
-3.9065847612729626E-1 1.457559295595694E-1
-3.6495687875907784E-1 1.7946767785941486E-1
-3.3673192409210057E-1 2.0968484630617837E-1
-3.0639794267679044E-1 2.3626471791406908E-1
-2.7437097793470083E-1 2.591091089881263E-1
-2.4106439941037347E-1 2.7816322746263084E-1
-2.068847560011931E-1 2.934141373936563E-1
-1.7222790051946169E-1 3.048888645569223E-1
-1.374754126022289E-1 3.126521801694694E-1
-1.029913425481507E-1 3.168041011541102E-1
-6.911929431930143E-2 3.1747714663279675E-1
-3.61798614924252E-2 3.1483339080938827E-1
-4.468425651892132E-3 3.0906135263461876E-1
2.5746677496662547E-2 3.0037276240411764E-1
5.422562311372838E-2 2.8899924469399446E-1
8.0758195977645E-2 2.751889560468892E-1
1.0516452932685617E-1 2.592032144836839E-1
1.2729549359163664E-1 2.4131315612800064E-1
1.470327479108735E-1 2.2179645229726186E-1
1.6428847026502105E-1 2.0093411813126258E-1
1.790047845765422E-1 1.7900744137434324E-1
1.91152905403935E-1 1.562950573668308E-1
2.0073202282231145E-1 1.3307019342657522E-1
2.0776795161519757E-1 1.0959810299774295E-1
2.123115702539785E-1 8.613370690283033E-2
2.1443707603438877E-1 6.29194561848885E-2
2.1424008342130874E-1 4.0183427859198165E-2
2.1183559293014204E-1 1.813766203141871E-2
2.0735585788930427E-1 -3.0232540906797553E-3
2.0094817619424887E-1 -2.3123352646214654E-2
1.9277263360285105E-1 -4.2006202008732445E-2
1.829998243373129E-1 -5.9535576788311784E-2
1.7180857370674332E-1 -7.55958859296151E-2
1.5938368630029304E-1 -9.009236630092138E-2
1.459137418649459E-1 -1.0295105117084122E-1
1.3158895937310097E-1 -1.141185247779242E-1
1.16599148139084E-1 -1.2356147598625589E-1
1.0113176297715885E-1 -1.3126606542572228E-1
8.537007846642705E-2 -1.3723712170160668E-1
6.949149548468309E-2 -1.4149718334179837E-1
5.366599116047329E-2 -1.4408540393328428E-1
3.8054721256190985E-2 -1.4505633843545748E-1
2.280878203267256E-2 -1.444786290011952E-1
8.068136727237921E-3 -1.424336088482419E-1
-6.039290318579202E-3 -1.3901384262332162E-1
-4.676540513664323E-1 -1.666222023452175E-1
-1.9398350682768038E-2 -1.3432162147769672E-1
-4.676713633411788E-1 -1.666628820403434E-1
-4.700978671594168E-1 -1.1625148458978567E-1
-4.675485536537232E-1 -6.708890601616094E-2
-4.6029123683915657E-1 -1.962261581755646E-2
-4.486294202742572E-1 2.573913583182021E-2
-4.3289743035609823E-1 6.862964154050234E-2
-4.1345546609737094E-1 1.087255180563057E-1
-3.906846206798388E-1 1.4574795322822465E-1
-3.6498192768077503E-1 1.7946343148454946E-1
-3.367554820582613E-1 2.0968395549389895E-1
-3.064196827733222E-1 2.3626678605037382E-1
-2.7439064043005396E-1 2.5911372616554706E-1
-2.410817895112099E-1 2.781699788217958E-1
-2.068997407146318E-1 2.934226107873483E-1
-1.7224040475662356E-1 3.048986574732922E-1
-1.3748541465176492E-1 3.126629058499608E-1
-1.0299886905784425E-1 3.168153938798065E-1
-6.912441490758059E-2 3.174886661513896E-1
-3.618268312673707E-2 3.148448259155114E-1
-4.4690869221179E-3 3.090724239165949E-1
2.5748012113332674E-2 3.0038322416543883E-1
5.42287688781677E-2 2.890088861093747E-1
8.076295330589527E-2 2.751976016024497E-1
1.0517068892876544E-1 2.592107237346488E-1
1.2730284124545316E-1 2.4131942287016375E-1
1.4704106883305118E-1 2.218014032062139E-1
1.6429755302353358E-1 2.0093771093454943E-1
1.7901442451623165E-1 1.7900966265370163E-1
1.9116290758074692E-1 1.562959200452488E-1
2.007422044298479E-1 1.3306973402516595E-1
2.0777814392382837E-1 1.0959637872262441E-1
2.1232162006523378E-1 8.613079264712949E-2
2.1444684669029462E-1 6.291544149267624E-2
2.142494553926714E-1 4.017841391708582E-2
2.1184446402265397E-1 1.8131758731876894E-2
2.0736414310819543E-1 -3.0299309613687066E-3
2.0095580730349832E-1 -2.3130684056064332E-2
1.927795584357176E-1 -4.2014068149162836E-2
1.8300600588425583E-1 -5.954385930602497E-2
1.7181398903916575E-1 -7.560446993042748E-2
1.5938832536407407E-1 -9.010114209324462E-2
1.4591760618683006E-1 -1.0295991574274196E-1
1.315920607181074E-1 -1.141273830034837E-1
1.1660150715290446E-1 -1.2357024154856454E-1
1.0113340785836268E-1 -1.3127466148063305E-1
8.537104368814745E-2 -1.3724548127038444E-1
6.94918206055812E-2 -1.4150524944362636E-1
5.366571974655743E-2 -1.4409312947867944E-1
3.805389993664601E-2 -1.4506368588265275E-1
2.2807459716598023E-2 -1.4448556980532812E-1
8.066363991925157E-3 -1.4244012271927378E-1
-6.041461655433725E-3 -1.3901991661944763E-1
-4.6004164374987266E-1 -2.1783927730873917E-1
-1.9400867794749903E-2 -1.3432724895888623E-1
-4.600551524443042E-1 -2.1788252819052056E-1
-4.6768888327104075E-1 -1.6670142844584931E-1
-4.701185787679729E-1 -1.16285200144173E-1
-4.675716706020427E-1 -6.711775919317893E-2
-4.603160156191486E-1 -1.964666175512644E-2
-4.486551681878676E-1 2.571976431052246E-2
-4.3292351190756795E-1 6.861474345300446E-2
-4.134813078534354E-1 1.087148341055028E-1
-3.9070971466074994E-1 1.4574117575455053E-1
-3.650058333666984E-1 1.794602143424014E-1
-3.367778270933841E-1 2.0968392368095928E-1
-3.064401624753057E-1 2.3626954495439714E-1
-2.7440901621365077E-1 2.591188702929661E-1
-2.4109788634698356E-1 2.781770999118772E-1
-2.0691344374765602E-1 2.934313052216513E-1
-1.7225165521820776E-1 3.049085329271491E-1
-1.3749420519037361E-1 3.126735871251409E-1
-1.0300523862667084E-1 3.168265278975031E-1
-6.912844333710262E-2 3.1749992610088473E-1
-3.618448550102137E-2 3.1485591454844714E-1
-4.4688078885565955E-3 3.0908307601479296E-1
2.5750203995246E-2 3.003932082180631E-1
5.4232686655409784E-2 2.8901800523243215E-1
8.07683969135387E-2 2.7520569375570475E-1
1.0517745016808945E-1 2.592176612993378E-1
1.2731070839211583E-1 2.413251116470807E-1
1.4704983081845283E-1 2.2180578091836858E-1
1.6430700316164396E-1 2.0094074529144237E-1
1.7902436374212363E-1 1.7901134906184218E-1
1.9117314719744405E-1 1.5629627903795276E-1
2.0075256835730387E-1 1.330688084826363E-1
2.0778847046415522E-1 1.0959423094780706E-1
2.123317632027746E-1 8.612750137388454E-2
2.1445667695197043E-1 6.291109887794465E-2
2.142588603030029E-1 4.017312257361358E-2
2.1185334818784474E-1 1.8125628859607924E-2
2.0737242797669206E-1 -3.0367843213900416E-3
2.009634306331426E-1 -2.313814358266625E-2
1.927864735233404E-1 -4.202201661160881E-2
1.8301218059420235E-1 -5.955218169844605E-2
1.7181940467371637E-1 -7.561305535810027E-2
1.5939297542471076E-1 -9.01098854054916E-2
1.4592149505451552E-1 -1.0296871888171691E-1
1.3159520230778265E-1 -1.1413615609343011E-1
1.166039235636399E-1 -1.2357890369776618E-1
1.011351280621247E-1 -1.312831413107301E-1
8.537210229114993E-2 -1.3725371718969498E-1
6.949225670837958E-2 -1.4151318965783097E-1
5.36655759297799E-2 -1.44100731762654E-1
3.805322138929784E-2 -1.4507091711777492E-1
2.2806293547907534E-2 -1.44492405317647E-1
8.064758727021297E-3 -1.4244654543630272E-1
-6.043456383666238E-3 -1.3902591605091555E-1
-4.4703490823870384E-1 -2.693116332838398E-1
-1.9403201331436814E-2 -1.3433282003608987E-1
-4.470442763756212E-1 -2.6935711630136616E-1
-4.600691103848956E-1 -2.1792358097394524E-1
-4.6770659862321684E-1 -1.6673784608366837E-1
-4.70139245192083E-1 -1.1631687804103345E-1
-4.675945183627117E-1 -6.714468547842732E-2
-4.603403205098735E-1 -1.9668908732377244E-2
-4.48680258869198E-1 2.5702049406378092E-2
-4.329487756893383E-1 6.86013481371572E-2
-4.135061949892381E-1 1.0870549056333018E-1
-3.907337412172441E-1 1.4573557078796937E-1
-3.650285827527805E-1 1.7945799917442556E-1
-3.367989503367916E-1 2.0968472345668815E-1
-3.064593773520762E-1 2.3627296780977428E-1
-2.7442610534749484E-1 2.591245158699241E-1
-2.4111269439188462E-1 2.781845672244948E-1
-2.0692587378022265E-1 2.9344019979597075E-1
-1.722616644806674E-1 3.04918473169698E-1
-1.3750180030354264E-1 3.1268420986709455E-1
-1.0301047039961056E-1 3.1683749308586256E-1
-6.913140131402484E-2 3.1751092065585146E-1
-3.61852923607574E-2 3.1486665538092384E-1
-4.467613807077113E-3 3.090933122240189E-1
2.5753226906607463E-2 3.004027225123238E-1
5.4237349745534964E-2 2.890266146193519E-1
8.077450013045906E-2 2.75213249547582E-1
1.0518478686845158E-1 2.5922404850819997E-1
1.273190697733109E-1 2.4133024782949747E-1
1.4705900991522478E-1 2.2180961453830192E-1
1.643167983783901E-1 2.0094325368357857E-1
1.7903458190137148E-1 1.7901253606750073E-1
1.911836061006445E-1 1.5629617237815793E-1
2.007630988552472E-1 1.3306745694788702E-1
2.077989180499521E-1 1.0959170147134083E-1
2.123419891520116E-1 8.612387605486552E-2
2.1446655903630024E-1 6.290647200862486E-2
2.1426829311301557E-1 4.016759771964345E-2
2.1186224309645524E-1 1.811931605921787E-2
2.0738071279363016E-1 -3.043771220024997E-3
2.0097104898529322E-1 -2.314568939943692E-2
1.9279338400266852E-1 -4.203000709368973E-2
1.830183557296767E-1 -5.95605055538565E-2
1.7182482975482627E-1 -7.562160602354326E-2
1.5939764722922206E-1 -9.011856255477439E-2
1.4592542051434584E-1 -1.0297742965812617E-1
1.315983971570057E-1 -1.1414481606087983E-1
1.166064110073903E-1 -1.2358743752482304E-1
1.0113693748889098E-1 -1.3129148317127873E-1
8.537326807691802E-2 -1.372618109069768E-1
6.94928171294128E-2 -1.415209885904809E-1
5.366557221882137E-2 -1.4410819845752182E-1
3.805269695326911E-2 -1.4507802273353795E-1
2.2805293371019043E-2 -1.4449912884436206E-1
8.063328981924855E-3 -1.424528727346553E-1
-6.045268502245347E-3 -1.3903183872248312E-1
-4.2849882814254775E-1 -3.2049246996523256E-1
-1.940534754843514E-2 -1.343383341707122E-1
-4.285037467475338E-1 -3.205398047152807E-1
-4.47054351642942E-1 -2.6940035619500907E-1
-4.600835032674343E-1 -2.179624397704028E-1
-4.677244884932773E-1 -1.6677214284062228E-1
-4.7015984128609967E-1 -1.163465301875388E-1
-4.6761706961488103E-1 -6.716970077012879E-2
-4.603641237955769E-1 -1.9689376380158226E-2
-4.487046657009771E-1 2.568596819335447E-2
-4.329731974053148E-1 6.858942995302944E-2
-4.135301064933081E-1 1.0869745975527673E-1
-3.907566833461971E-1 1.4573110936473496E-1
-3.650501633463425E-1 1.794567565045348E-1
-3.3681884410696483E-1 2.0968632561693154E-1
-3.064773246561886E-1 2.3627702645004295E-1
-2.7444190997868756E-1 2.591306364908981E-1
-2.4112622051116503E-1 2.781923567841775E-1
-2.0693704211007413E-1 2.9344927357109324E-1
-1.7227044789043086E-1 3.049284608218194E-1
-1.375082189244558E-1 3.1269476068785973E-1
-1.0301458638877864E-1 3.168482803983255E-1
-6.913331338687644E-2 3.1752164537299904E-1
-3.618513022418537E-2 3.148770487355392E-1
-4.465532595785762E-3 3.0910313770598213E-1
2.5757052090047746E-2 3.004117770407716E-1
5.4242729091368985E-2 2.890347290034141E-1
8.078123411129752E-2 2.752202882889505E-1
1.0519267087580064E-1 2.5922990901885823E-1
1.2732789836342112E-1 2.4133485912723213E-1
1.4706858061655206E-1 2.2181293548561926E-1
1.643269150304076E-1 2.009452708539688E-1
1.7904505751147204E-1 1.7901326130956322E-1
1.9119426521312055E-1 1.5629564014723246E-1
2.0077377944375013E-1 1.3306572147147835E-1
2.0780947293979837E-1 1.0958883382555099E-1
2.1235228700108777E-1 8.611996120922978E-2
2.1447648490024954E-1 6.290160589403494E-2
2.1427774863520466E-1 4.016188437054958E-2
2.118711463569854E-1 1.8112864877496252E-2
2.0738899785572326E-1 -3.0508480341904674E-3
2.0097866518889643E-1 -2.315327923132012E-2
1.9280029504024115E-1 -4.203799906965142E-2
1.8302453855781184E-1 -5.956879245128563E-2
1.7183027337880566E-1 -7.563008592890876E-2
1.5940235139975548E-1 -9.012714024010354E-2
1.459293943852663E-1 -1.029860176893252E-1
1.3160165793490963E-1 -1.1415333561949313E-1
1.1660898263768532E-1 -1.2359581895730899E-1
1.0113884940155365E-1 -1.312996662659785E-1
8.537455403557972E-2 -1.372697449084816E-1
6.94935142092337E-2 -1.4152863196273496E-1
5.366571993119235E-2 -1.441155184103316E-1
3.805233655723844E-2 -1.4508499453094262E-1
2.280446738698483E-2 -1.4450573490655194E-1
8.06208092556658E-3 -1.4245910155802796E-1
-6.0468941461890675E-3 -1.3903768362854052E-1
-4.0435160369414036E-1 -3.708101344214293E-1
-1.9407305110611388E-2 -1.343437919323284E-1
-4.0435179695259704E-1 -3.7085890124095683E-1
-4.2850964611236997E-1 -3.205848732071752E-1
-4.4706511777932995E-1 -2.694413565028342E-1
-4.600983072379216E-1 -2.179991117853517E-1
-4.677425240383791E-1 -1.6680433001617595E-1
-4.701803355064555E-1 -1.1637417208334647E-1
-4.676392920834411E-1 -6.719282460972949E-2
-4.603873941309201E-1 -1.9708087904446267E-2
-4.4872835963466595E-1 2.5671494342244267E-2
-4.3299675139302696E-1 6.857896011315723E-2
-4.1355302092317897E-1 1.0869071118694901E-1
-3.907785244193834E-1 1.4572776008185917E-1
-3.6507056371177876E-1 1.7945645483687794E-1
-3.3683750234356247E-1 2.0968869937758172E-1
-3.064940037131106E-1 2.3628169157767087E-1
-2.744564346819571E-1 2.591372050709221E-1
-2.4113847426109739E-1 2.7820044437649927E-1
-2.0694696289837847E-1 2.934585057797688E-1
-1.72278023760902E-1 3.049384790639922E-1
-1.3751348299999303E-1 3.12705227124699E-1
-1.0301761160378582E-1 3.1685888203489726E-1
-6.913420703574137E-2 3.175320973303992E-1
-3.6184028436408014E-2 3.1488709669449505E-1
-4.462594863488298E-3 3.0911255958106204E-1
2.576164826060575E-2 3.0042038390786024E-1
5.4248793298206574E-2 2.890423653374327E-1
8.078856787740141E-2 2.7522683157547567E-1
1.0520107211552712E-1 2.5923526879839276E-1
1.2733716543584644E-1 2.413389755482486E-1
1.470785159390311E-1 2.218157774282421E-1
1.6433732821829944E-1 2.0094683370993488E-1
1.7905576804374324E-1 1.7901356448031272E-1
1.912051046136235E-1 1.562947243372967E-1
2.0078459298841378E-1 1.3306364584632335E-1
2.0782012090781754E-1 1.0958567309784271E-1
2.123626454996028E-1 8.611580270850963E-2
2.144864462855955E-1 6.289654668074963E-2
2.142872215655569E-1 4.0156028451481E-2
2.1188005553011566E-1 1.810632054487023E-2
2.0739728345333966E-1 -3.0579706855953406E-3
2.009862820805406E-1 -2.316087057457684E-2
1.928072117951068E-1 -4.2045951997295036E-2
1.830307362999679E-1 -5.957700416427503E-2
1.7183574453242312E-1 -7.563845946577352E-2
1.5940709836408742E-1 -9.013558573049775E-2
1.4593342818557287E-1 -1.0299445332685482E-1
1.3160499688263982E-1 -1.1416168835767045E-1
1.1661165103522207E-1 -1.2360402492248024E-1
1.0114087632780021E-1 -1.3130767090551065E-1
8.537597224692388E-2 -1.372775028769207E-1
6.949435918177554E-2 -1.4153610676104666E-1
5.366602906743626E-2 -1.4412268178767063E-1
3.805214859258578E-2 -1.4509182567266202E-1
2.280382201893432E-2 -1.4451221941292616E-1
8.06101868025206E-3 -1.4246523023298518E-1
-6.048331782478819E-3 -1.3904345110859656E-1
-3.745682683581371E-1 -4.1967306451575187E-1
-1.9409075265103725E-2 -1.3434919515094337E-1
-3.745634983797418E-1 -4.197228071170573E-1
-4.043532593827837E-1 -3.70905402671556E-1
-4.285165078116153E-1 -3.2062767821199606E-1
-4.4707654767812804E-1 -2.6948012347823785E-1
-4.601134893853526E-1 -2.1803360739655267E-1
-4.6776066906623964E-1 -1.6683442238273963E-1
-4.702006905528695E-1 -1.163998228493353E-1
-4.676611491989484E-1 -6.721408017051926E-2
-4.6041009719816517E-1 -1.9725070036032154E-2
-4.4875130982911465E-1 2.5658598212487276E-2
-4.330194112342537E-1 6.856990681673686E-2
-4.1357491697564774E-1 1.0868521171198514E-1
-3.9079924870874155E-1 1.4572548929069434E-1
-3.650897739468779E-1 1.7945706086964272E-1
-3.3685492103554077E-1 2.0969181260609132E-1
-3.065094163016793E-1 2.3628693300370313E-1
-2.7446968678555933E-1 2.5914419408018985E-1
-2.4114946816437033E-1 2.7820880577465396E-1
-2.0695565340876854E-1 2.934678760554351E-1
-1.7228441356317808E-1 3.04948511848456E-1
-1.3751761762860198E-1 3.127155978203317E-1
-1.0301957415247498E-1 3.16869291603707E-1
-6.913411273595325E-2 3.1754227527120366E-1
-3.618201920041179E-2 3.1489680321555275E-1
-4.458833904715344E-3 3.09121587007741E-1
2.5766981640147256E-2 3.0042855737747487E-1
5.4255508683923606E-2 2.890495428149016E-1
8.0796468386953E-2 2.752329032797972E-1
1.0520995867890977E-1 2.5924015608883194E-1
1.2734684066080876E-1 2.413426293341961E-1
1.4708878752229432E-1 2.2181817619210334E-1
1.6434801188941223E-1 2.0094798120560672E-1
1.7906669003055156E-1 1.790134871788502E-1
1.9121610363506072E-1 1.5629346869010366E-1
2.007955217832952E-1 1.330612754364085E-1
2.0783084731543727E-1 1.095822657433983E-1
2.1237305312133023E-1 8.611144757384849E-2
2.1449643476572025E-1 6.289134144469474E-2
2.14296706515952E-1 4.015007658829235E-2
2.1188896814903616E-1 1.8099728757442396E-2
2.0740556987538442E-1 -3.0650948555626077E-3
2.0099390249745716E-1 -2.31684209111842E-2
1.928141394030627E-1 -4.205382553728749E-2
1.83036956102585E-1 -5.9585102867934975E-2
1.7184125205262069E-1 -7.564669161514749E-2
1.5941189830408128E-1 -9.014386705372916E-2
1.4593753307447968E-1 -1.0300270783855049E-1
1.316084257493149E-1 -1.1416984891834807E-1
1.1661442813889214E-1 -1.2361203351953194E-1
1.0114302998798441E-1 -1.3131547867357105E-1
8.53775337994596E-2 -1.3728506985280436E-1
6.949536208997419E-2 -1.4154340140092317E-1
5.366650821477805E-2 -1.4412968024343578E-1
3.8052139793248646E-2 -1.450985108498715E-1
2.2803361766986927E-2 -1.445185798290941E-1
8.060144161417338E-3 -1.4247125866286994E-1
-6.049582372780687E-3 -1.3904914305256733E-1
-3.391838723043273E-1 -4.664752020358362E-1
-1.941066205634185E-2 -1.3435454714271464E-1
-3.391739437182511E-1 -4.6652543068156505E-1
-3.745602997001957E-1 -4.197703113111232E-1
-4.0435597015523767E-1 -3.709496404884053E-1
-4.285243011413243E-1 -3.20668224720234E-1
-4.470886039430099E-1 -2.695166662182015E-1
-4.601290084038595E-1 -2.1806594026332907E-1
-4.677788807563806E-1 -1.668624382559812E-1
-4.702208641172014E-1 -1.164235052535932E-1
-4.676826008491363E-1 -6.723349423104312E-2
-4.60432196440751E-1 -1.974035295017026E-2
-4.487734843469973E-1 2.5647246974266603E-2
-4.3304115040488816E-1 6.856223540563311E-2
-4.1359577408374737E-1 1.086809257156955E-1
-3.908188419259845E-1 1.457242613054961E-1
-3.6510778616186784E-1 1.794585397130404E-1
-3.3687109863691805E-1 2.0969563204155245E-1
-3.0652356701292316E-1 2.362927198706384E-1
-2.744816766772357E-1 2.591515757655015E-1
-2.4115921795902118E-1 2.7821741694756663E-1
-2.069631342006459E-1 2.9347736461869195E-1
-1.722896420831068E-1 3.0495854407944134E-1
-1.3752065117635204E-1 3.1272586268476993E-1
-1.0302050531436982E-1 3.1687950424971123E-1
-6.913306399919013E-2 3.175521797057363E-1
-3.6179137584727974E-2 3.149061742078022E-1
-4.454285688433625E-3 3.091302312378859E-1
2.5773015995941437E-2 3.004363138960731E-1
5.4262839341306365E-2 2.890562828610814E-1
8.080490060747218E-2 2.752385295162379E-1
1.0521929690929183E-1 2.592446013375292E-1
1.2735689219987034E-1 2.4134585486394913E-1
1.4709936573104673E-1 2.2182016964098908E-1
1.6435893893365353E-1 2.009487542064734E-1
1.790777991530716E-1 1.7901307275846204E-1
1.9122724095421434E-1 1.5629191851585478E-1
2.0080654763764808E-1 1.3305865697307714E-1
2.078416371816708E-1 1.0957865937664081E-1
2.1238349811836432E-1 8.610694376365713E-2
2.1450644178762723E-1 6.288603796450093E-2
2.1430619803686274E-1 4.014407587911481E-2
2.1189788172647633E-1 1.8093135450050053E-2
2.074138574048999E-1 -3.0721762181374285E-3
2.0100152925756953E-1 -2.3175887930090462E-2
1.9282108294082909E-1 -4.2061579762758504E-2
1.830432049921735E-1 -5.959305134326966E-2
1.7184680457553575E-1 -7.565474814376916E-2
1.5941676109922728E-1 -9.015195318769022E-2
1.4594171978613268E-1 -1.0301075358299551E-1
1.3161195571979764E-1 -1.1417779316109183E-1
1.1661732516922044E-1 -1.236198241780654E-1
1.0114532121281239E-1 -1.3132307258200104E-1
8.537924870292343E-2 -1.372924323927839E-1
6.949653168896078E-2 -1.4155050588841092E-1
5.3667164445344064E-2 -1.4413650708748796E-1
3.805231512270401E-2 -1.4510504647288494E-1
2.2803089072721574E-2 -1.4452481538307899E-1
8.059456914237139E-3 -1.4247718853187316E-1
-6.050649583140167E-3 -1.3905476314558998E-1
-2.9829617616830234E-1 -5.106018407151691E-1
-1.9412072632456787E-2 -1.3435985302003148E-1
-2.9828094048895865E-1 -5.106520359355089E-1
-3.391659011246235E-1 -4.6657347613815403E-1
-3.7455864881128403E-1 -4.1981557760979793E-1
-4.043598945856741E-1 -3.7099161804370984E-1
-4.2853298376545806E-1 -3.2070652011417006E-1
-4.471012396528855E-1 -2.6955099681650785E-1
-4.601448154190055E-1 -2.1809612744232254E-1
-4.6779711050798867E-1 -1.6688839955726542E-1
-4.702408097214394E-1 -1.1644524571569076E-1
-4.6770360418048496E-1 -6.725109713237362E-2
-4.60453653818061E-1 -1.975397017745857E-2
-4.4879485085794363E-1 2.563740474316096E-2
-4.3306194291787065E-1 6.855590853873406E-2
-4.136155729980983E-1 1.0867781531730218E-1
-3.90837291740165E-1 1.4572403862231237E-1
-3.651245949381027E-1 1.794608551260266E-1
-3.36886036464829E-1 2.0970012353482168E-1
-3.065364635863302E-1 2.36299020890332E-1
-2.7449241808588576E-1 2.5915932238233363E-1
-2.4116774282978784E-1 2.7822625428289394E-1
-2.069694293067014E-1 2.9348695247831064E-1
-1.7229373754206226E-1 3.049685617771793E-1
-1.3752261535817656E-1 3.127360130388456E-1
-1.0302043958119662E-1 3.1688951677509625E-1
-6.913109738063011E-2 3.1756181300259295E-1
-3.617542150021749E-2 3.149152175895917E-1
-4.448988801729994E-3 3.09138505638183E-1
2.5779712709050124E-2 3.0044367209267575E-1
5.4270747225925876E-2 2.8906260909971004E-1
8.081382761883432E-2 2.752437385758241E-1
1.0522905150813804E-1 2.592486371157863E-1
1.273672868139455E-1 2.4134868854804653E-1
1.4711021976214286E-1 2.2182179754242456E-1
1.6437008129649036E-1 2.009491953261493E-1
1.79089070348593E-1 1.7901236614547947E-1
1.9123849468113005E-1 1.5629012050593502E-1
2.0081765195589818E-1 1.3305583835402904E-1
2.0785247525734862E-1 1.0957490254940858E-1
2.1239396858073212E-1 8.610233994571632E-2
2.14516458719113E-1 6.288068449397356E-2
2.143156906527082E-1 4.013807366131167E-2
2.119067937733576E-1 1.8086586572830115E-2
2.0742214632253458E-1 -3.0791706526700074E-3
2.0100916515433553E-1 -2.3183229741983117E-2
1.9282804741494156E-1 -4.206917537135878E-2
1.8304948985456337E-1 -5.9600813182947084E-2
1.7185241050625832E-1 -7.566259579726348E-2
1.5942169628994618E-1 -9.015981424110293E-2
1.4594599859352372E-1 -1.0301856419191743E-1
1.3161559737601944E-1 -1.1418549834148027E-1
1.1662035258391279E-1 -1.2362737782938484E-1
1.0114775989355612E-1 -1.313304372413281E-1
8.53811258325289E-2 -1.372995787398182E-1
6.949787538147927E-2 -1.4155741200197333E-1
5.3668003226948945E-2 -1.4414315747480558E-1
3.805267765966127E-2 -1.4511143086473385E-1
2.280300418581781E-2 -1.445309272901182E-1
8.058953941669576E-3 -1.4248302357621123E-1
-6.051540043948439E-3 -1.3906031717866155E-1
-2.520678006649619E-1 -5.51435867749859E-1
-1.9413317566945327E-2 -1.3436512002668582E-1
-2.5204716041117725E-1 -5.514854846097054E-1
-2.9826791687595994E-1 -5.107001335629445E-1
-3.391597180195395E-1 -4.6661933732946875E-1
-3.745585066064726E-1 -4.198586072862225E-1
-4.0436498488074607E-1 -3.710313405058021E-1
-4.285425025870354E-1 -3.2074257439538695E-1
-4.4711439929548996E-1 -2.695831305456387E-1
-4.6016085493968834E-1 -2.1812418951045506E-1
-4.6781530487481354E-1 -1.6691233188065913E-1
-4.7026047761793954E-1 -1.1646507431063419E-1
-4.6772411445531786E-1 -6.726692271651072E-2
-4.604744306013948E-1 -1.9765958491441877E-2
-4.488153773662527E-1 2.562903273176118E-2
-4.3308176398028575E-1 6.855088637117665E-2
-4.13634296373725E-1 1.0867584057987019E-1
-3.9085458829416597E-1 1.4572478214660084E-1
-3.651401977697818E-1 1.7946396974879197E-1
-3.3689973907755105E-1 2.0970525228959339E-1
-3.0654811722025244E-1 2.363058045705926E-1
-2.745019283255248E-1 2.591674064029531E-1
-2.411750655977446E-1 2.7823529477699743E-1
-2.069745663784757E-1 2.9349662160860646E-1
-1.722967317010853E-1 3.0497855223903736E-1
-1.3752354529875002E-1 3.1274604174360543E-1
-1.030194146855251E-1 3.1689932774033747E-1
-6.912825247152321E-2 3.1757117945662294E-1
-3.6170911668095995E-2 3.1492394333052254E-1
-4.442984394847191E-3 3.0914642569884565E-1
2.5787030855351455E-2 3.0045065274906746E-1
5.427919224629384E-2 2.8906854730079257E-1
8.082321071700743E-2 2.7524856084443367E-1
1.052391856509952E-1 2.5925229799878646E-1
1.273779899849367E-1 2.4135116868361634E-1
1.4712131776310466E-1 2.218231014070792E-1
1.6438141008593596E-1 2.0094934874925108E-1
1.7910047791318556E-1 1.790114136451722E-1
1.912498424547251E-1 1.5628812252127236E-1
2.0082881581233195E-1 1.330528684299101E-1
2.0786334608508178E-1 1.0957104453691735E-1
2.1240445248334444E-1 8.609768527326424E-2
2.145264768773087E-1 6.287532953930085E-2
2.1432517887777966E-1 4.013211729022156E-2
2.119157018054326E-1 1.8080127861304873E-2
2.0743043690334495E-1 -3.08603446972747E-3
2.0101681293600243E-1 -2.3190405090614805E-2
1.9283503772924088E-1 -4.207657388440301E-2
1.8305581739693855E-1 -5.9608352979576396E-2
1.7185807797838018E-1 -7.567020248672689E-2
1.594267130322871E-1 -9.016742163280517E-2
1.4595037925363144E-1 -1.0302611473230307E-1
1.3161936064297694E-1 -1.1419294326976498E-1
1.166235200256093E-1 -1.2363467706796297E-1
1.011503549273015E-1 -1.3133755902235747E-1
8.538317286484663E-2 -1.3730649898563194E-1
6.949939914472318E-2 -1.4156411345862488E-1
5.36690283470415E-2 -1.4414962860080396E-1
3.805322850185383E-2 -1.451176644870125E-1
2.280310502279998E-2 -1.4453691900623272E-1
8.058629498295456E-3 -1.4248876990081527E-1
-6.052263611416435E-3 -1.3906581342916707E-1
-2.0072778085638493E-1 -5.883643511470552E-1
-1.941441115730165E-2 -1.3437035791533408E-1
-2.0070169334053953E-1 -5.884128240310741E-1
-2.520290684746055E-1 -5.51533122025859E-1
-2.982570754500297E-1 -5.107461305380627E-1
-3.3915535036457095E-1 -4.6666301291952755E-1
-3.7455981925069265E-1 -4.1989940269320447E-1
-4.0437118114481063E-1 -3.7106881516263934E-1
-4.2855279481792236E-1 -3.207764004419499E-1
-4.471280198496093E-1 -2.696130860476657E-1
-4.6017706591742197E-1 -2.1815015067867047E-1
-4.678334065820312E-1 -1.6693426452495275E-1
-4.702798157378247E-1 -1.1648302473706641E-1
-4.677440859214295E-1 -6.728100824031923E-2
-4.6049448817059463E-1 -1.9776357766536724E-2
-4.488350329273574E-1 2.5622089434846507E-2
-4.3310059062905726E-1 6.85471267701347E-2
-4.1365192932147216E-1 1.0867495973346117E-1
-3.908707246808994E-1 1.457264514287829E-1
-3.6515459546912826E-1 1.7946784533823648E-1
-3.36912214606332E-1 2.097109830853708E-1
-3.065585428498841E-1 2.3631303944130863E-1
-2.7451022851617424E-1 2.5917580072742824E-1
-2.411812128806421E-1 2.782445162215785E-1
-2.0697857679307205E-1 2.93506355105891E-1
-1.7229865992017823E-1 3.049885041668515E-1
-1.3752347955061386E-1 3.127559433012518E-1
-1.0301747158132003E-1 3.1690893753444055E-1
-6.912457185073845E-2 3.1758028532855137E-1
-3.616565154336871E-2 3.149323634551853E-1
-4.436316088716895E-3 3.091540090134991E-1
2.5794927310637216E-2 3.00457278753754E-1
5.42881323850742E-2 2.8907412529901577E-1
8.083300953727181E-2 2.752530287001196E-1
1.0524966110703224E-1 2.5925562044925826E-1
1.2738896603236935E-1 2.413533353094085E-1
1.4713262694893875E-1 2.2182412431861964E-1
1.643928956837612E-1 2.0094926004687252E-1
1.7911199559897925E-1 1.790102627413181E-1
1.9126126153613246E-1 1.5628597337600217E-1
2.0084002003941565E-1 1.330497967709446E-1
2.0787423407039146E-1 1.0956713510146937E-1
2.12414937747338E-1 8.609302914577846E-2
2.1453648757825902E-1 6.287002161372322E-2
2.1433465725179296E-1 4.012625390085284E-2
2.1192460336336638E-1 1.8073804614005595E-2
2.0743872942673275E-1 -3.0927246307898663E-3
2.0102447531372594E-1 -2.3197373569460684E-2
1.9284205868557022E-1 -4.208373785637511E-2
1.8306219414273567E-1 -5.9615636527782824E-2
1.7186381483993787E-1 -7.567753747255448E-2
1.594318200838731E-1 -9.01747482697887E-2
1.459548709971523E-1 -1.0303338188439451E-1
1.3162325477147754E-1 -1.1420010847729557E-1
1.1662683629821413E-1 -1.2364170631124623E-1
1.0115311419083317E-1 -1.313444262219523E-1
8.538539625194605E-2 -1.3731318525481004E-1
6.950110748800913E-2 -1.4157060611206962E-1
5.367024184093099E-2 -1.441559199127309E-1
3.805396666516751E-2 -1.451237501974513E-1
2.2803387015031932E-2 -1.4454279655085375E-1
8.058474864276095E-3 -1.424944363468889E-1
-6.052833664861954E-3 -1.3907126306204143E-1
-1.4457247760732206E-1 -6.207854188914372E-1
-1.9415371830627567E-2 -1.3437557942040296E-1
-1.4454095833777156E-1 -6.208321667756678E-1
-2.006784994075061E-1 -5.884594704123502E-1
-2.5201349114715754E-1 -5.515787744729921E-1
-2.982483666374818E-1 -5.107900222795336E-1
-3.3915273760535447E-1 -4.6670450174298334E-1
-3.7456251934379786E-1 -4.1993796768696756E-1
-4.0437841260495955E-1 -3.7110405178830774E-1
-4.2856378920596827E-1 -3.208080142890721E-1
-4.471420319769164E-1 -2.696408855265481E-1
-4.601933828779431E-1 -2.181740388972213E-1
-4.6785135557998864E-1 -1.6695423052305886E-1
-4.702987706708476E-1 -1.1649913426688037E-1
-4.677634727044673E-1 -6.729339426547563E-2
-4.605137888089716E-1 -1.9785210831446624E-2
-4.488537883538474E-1 2.561653081047571E-2
-4.331184023522099E-1 6.854458552808704E-2
-4.1366845994988555E-1 1.0867512941284668E-1
-3.9088569739840945E-1 1.4572900489923837E-1
-3.6516779254744575E-1 1.79472443008485E-1
-3.369234750652727E-1 2.0971728050892027E-1
-3.0656775938039665E-1 2.3632069426007016E-1
-2.745173437629874E-1 2.591844788773764E-1
-2.4118621522093864E-1 2.7825389737607364E-1
-2.0698149573100144E-1 2.9351613733377707E-1
-1.722995611947637E-1 3.0499840778208326E-1
-1.375224600925137E-1 3.127657139339736E-1
-1.0301465441197369E-1 3.169183484219265E-1
-6.912010102646164E-2 3.175891388627701E-1
-3.615968723627364E-2 3.149404920339418E-1
-4.42902987542898E-3 3.0916127523445286E-1
2.5803356865596618E-2 3.0046357502438725E-1
5.429752381804842E-2 2.890793728966759E-1
8.084318218360281E-2 2.7525717637938457E-1
1.0526043837517643E-1 2.5925864265156323E-1
1.2740017824509844E-1 2.4135523003101492E-1
1.4714411372558403E-1 2.218249107396041E-1
1.6440450786569086E-1 2.0094897596189223E-1
1.7912359672574146E-1 1.7900896187119306E-1
1.9127272889639818E-1 1.5628372261382645E-1
2.0085124530250933E-1 1.3304667343921242E-1
2.0788512354316738E-1 1.0956322425622807E-1
2.1242541228072118E-1 8.608842098112585E-2
2.1454648216475622E-1 6.286480901723938E-2
2.143441203572383E-1 4.0120530184249846E-2
2.1193349602364944E-1 1.8067661468518882E-2
2.0744702417205324E-1 -3.0991989560177646E-3
2.0103215494724172E-1 -2.3204095820823147E-2
1.928491149654116E-1 -4.209063106118206E-2
1.8306862641068258E-1 -5.962263100043159E-2
1.7186962863427271E-1 -7.56845715360776E-2
1.5943702578010624E-1 -9.018176870457988E-2
1.4595948250491622E-1 -1.0304034409259784E-1
1.3162728832129006E-1 -1.1420697637462636E-1
1.166303093539425E-1 -1.2364845196246811E-1
1.0115604452407283E-1 -1.3135102922789044E-1
8.538780119613365E-2 -1.373196318773291E-1
6.95030034227731E-2 -1.4157688815649677E-1
5.367164394382015E-2 -1.4416203335616998E-1
3.805488898751712E-2 -1.451296935418127E-1
2.280384295185187E-2 -1.4454856886392375E-1
8.058478120506123E-3 -1.425000349277317E-1
-6.05326745453572E-3 -1.3907668065227907E-1
-8.39658032976679E-2 -6.481153699294605E-1
-1.9416222691089585E-2 -1.3438080088381027E-1
-8.392892896693788E-2 -6.481598021629565E-1
-1.4451268588377095E-1 -6.208772782537406E-1
-2.006581609644192E-1 -5.88504281704063E-1
-2.52000372596239E-1 -5.516224333468284E-1
-2.982417223734334E-1 -5.108318032530323E-1
-3.3915180403185985E-1 -4.667438033602762E-1
-3.7456652733642093E-1 -4.199743081053804E-1
-4.043865990153585E-1 -3.7113706302484845E-1
-4.285754073905474E-1 -3.2083743540051285E-1
-4.4715636129815983E-1 -2.696665549154185E-1
-4.602097371054222E-1 -2.1819588592827113E-1
-4.678690901266716E-1 -1.66972266629553E-1
-4.70317288633235E-1 -1.1651344367598793E-1
-4.6778222967712996E-1 -6.730412452571852E-2
-4.60532296476971E-1 -1.9792563282085094E-2
-4.4887161688960153E-1 2.5612310496704677E-2
-4.3313518166643666E-1 6.854321658897912E-2
-4.136838798548159E-1 1.0867630489387231E-1
-3.9089950676363583E-1 1.4573240011507363E-1
-3.651797975477129E-1 1.7947772346225657E-1
-3.369335366192038E-1 2.0972410918056497E-1
-3.0657578989310547E-1 2.3632873822031422E-1
-2.745233032919127E-1 2.5919341516836875E-1
-2.4119010717191328E-1 2.782634181160311E-1
-2.0698336221539054E-1 2.935259540426737E-1
-1.7229947815289878E-1 3.0500825491742967E-1
-1.375205322925902E-1 3.1277535164826564E-1
-1.0301101043849532E-1 3.169275645700324E-1
-6.911488833818137E-2 3.175977502770127E-1
-3.615306739058896E-2 3.1494834513322384E-1
-4.4211739866487736E-3 3.0916824599919135E-1
2.5812272366348935E-2 3.004695684046791E-1
5.430732106475696E-2 2.8908432172569387E-1
8.085368537191308E-2 2.7526103983023203E-1
1.0527147682487008E-1 2.592614043411206E-1
1.274115890227366E-1 2.413568958211779E-1
1.4715574382071972E-1 2.2182550630514403E-1
1.644162159132795E-1 2.0094854419602373E-1
1.791352542841043E-1 1.7900756020011488E-1
1.912842213132078E-1 1.5628142026845157E-1
2.008624721789913E-1 1.330435487506118E-1
2.078959988285301E-1 1.0955936202759607E-1
2.1243586404157927E-1 8.608390997122732E-2
2.1455645205708254E-1 6.285973959622188E-2
2.1435356285346527E-1 4.011499216639976E-2
2.1194237742157218E-1 1.8061742186060232E-2
2.0745532144124146E-1 -3.105416338158182E-3
2.010398544592891E-1 -2.3210533735311973E-2
1.9285621113864168E-1 -4.209721868371441E-2
1.8307512031722362E-1 -5.9629305123795544E-2
1.718755266048828E-1 -7.569127715141076E-2
1.5944233804697366E-1 -9.018845930753433E-2
1.4596422191946165E-1 -1.030469817265577E-1
1.316314691709669E-1 -1.1421353140136607E-1
1.1663394630582781E-1 -1.2365490256640764E-1
1.0115915174231763E-1 -1.3135736068564202E-1
8.539039165414307E-2 -1.373258355717035E-1
6.950508844708601E-2 -1.4158296033725387E-1
5.3673233046195715E-2 -1.441679736377885E-1
3.8055990039796685E-2 -1.4513550308778778E-1
2.280446281844134E-2 -1.445542482163925E-1
8.058623871628338E-3 -1.4250558134885533E-1
-6.0535865505364685E-3 -1.390820848612453E-1
-1.933872413850976E-2 -6.697959515306849E-1
-1.9416992142780434E-2 -1.3438604307258714E-1
-1.9296635156464077E-2 -6.698374740821951E-1
-8.389566179346879E-2 -6.482028277964427E-1
-1.444876170684379E-1 -6.20920740932007E-1
-2.006406150392319E-1 -5.885472443319436E-1
-2.5198963630303634E-1 -5.51664087725446E-1
-2.982370577034416E-1 -5.108714677098347E-1
-3.3915246042393515E-1 -4.6678091870351385E-1
-3.7457175314267716E-1 -4.2000843228946166E-1
-4.0439565219126644E-1 -3.7116786477056385E-1
-4.285875653303556E-1 -3.2086468693863684E-1
-4.4717092971117695E-1 -2.6969012402555165E-1
-4.602260578405906E-1 -2.182157273971147E-1
-4.6788654787302053E-1 -1.6698841328320566E-1
-4.703353164473142E-1 -1.1652599712451248E-1
-4.6780031331941796E-1 -6.731324576605903E-2
-4.6054997756012245E-1 -1.9798463291135767E-2
-4.488884948576877E-1 2.5609380031599446E-2
-4.331509146691219E-1 6.854297228869774E-2
-4.136981845751731E-1 1.0867844033311731E-1
-3.909121572809303E-1 1.457365939934818E-1
-3.651906233370986E-1 1.7948364721467797E-1
-3.369424197955893E-1 2.097314339483796E-1
-3.0658266179889804E-1 2.363371411298568E-1
-2.7452814055319363E-1 2.592025848698406E-1
-2.41192927343391E-1 2.7827305955761666E-1
-2.0698421911719422E-1 2.9353579246620726E-1
-1.7229845702004504E-1 3.050180390753737E-1
-1.3751774484178939E-1 3.127848562616451E-1
-1.0300658995118299E-1 3.1693659204821734E-1
-6.91089848494939E-2 3.176061317364343E-1
-3.6145843064491784E-2 3.149559407640065E-1
-4.412798753612728E-3 3.0917494483650737E-1
2.5821624858572142E-2 3.0047528755283387E-1
5.431747713519044E-2 2.890890051096528E-1
8.086447458359063E-2 2.7526465654029547E-1
1.0528273483750891E-1 2.5926394662808644E-1
1.274231600045566E-1 2.413583768319563E-1
1.47167482408846E-1 2.2182595761111334E-1
1.6442798873302436E-1 2.0094801318455996E-1
1.791469410388122E-1 1.7900610739216005E-1
1.9129571546220492E-1 1.5627911662957797E-1
2.0087368123663504E-1 1.330404730346054E-1
2.0790684430644873E-1 1.0955559821815354E-1
2.1244628108162164E-1 8.607954485627779E-2
2.1456638878712703E-1 6.285486051795282E-2
2.1436297950576272E-1 4.010968498100792E-2
2.119512452654288E-1 1.8056089447080047E-2
2.07463621564049E-1 -3.1113369342481464E-3
2.0104757644327656E-1 -2.32166506380004E-2
1.9286335167424307E-1 -4.210346750066916E-2
1.830816817904067E-1 -5.9635629352591805E-2
1.718815157032627E-1 -7.56976286347394E-2
1.5944776441019032E-1 -9.019479840685236E-2
1.4596909686624637E-1 -1.0305327722938859E-1
1.3163580454413282E-1 -1.1421976017488358E-1
1.166377534545395E-1 -1.2366104895585131E-1
1.0116244066869019E-1 -1.3136341566284482E-1
8.539317036893336E-2 -1.3733179564185988E-1
6.950736256271609E-2 -1.4158882619114316E-1
5.367500567053907E-2 -1.441737485177642E-1
3.8057262047386776E-2 -1.4514119080426174E-1
2.2805233623658064E-2 -1.4455985071121433E-1
8.058892909684971E-3 -1.4251109566385467E-1
-6.053817379992058E-3 -1.390874992854826E-1
4.881199259218682E-2 -6.853017322280274E-1
-1.9417714658785768E-2 -1.3439133223530392E-1
4.885909005625545E-2 -6.853397543784563E-1
-1.9258520247428718E-2 -6.698778623876936E-1
-8.386595263886841E-2 -6.48244429664614E-1
-1.444656806929189E-1 -6.209625350698229E-1
-2.006257755265423E-1 -5.885883407297313E-1
-2.519811869696603E-1 -5.517037253302055E-1
-2.982342727033432E-1 -5.109090105331705E-1
-3.3915460590232277E-1 -4.668158507671695E-1
-3.7457809788216967E-1 -4.200403516130835E-1
-4.0440547762733625E-1 -3.711964765448501E-1
-4.286001747873822E-1 -3.2088979598331285E-1
-4.4718565673024885E-1 -2.697116266519551E-1
-4.602422734828488E-1 -2.182336027919367E-1
-4.6790366692077484E-1 -1.6700271453741372E-1
-4.703528024628903E-1 -1.1653684203478369E-1
-4.678176825263531E-1 -6.732080756041332E-2
-4.6056680156526986E-1 -1.9802961390125197E-2
-4.489044022476832E-1 2.5607689085195742E-2
-4.3316559152792034E-1 6.854380359438561E-2
-4.137113739960205E-1 1.0868148900660148E-1
-3.90923657962522E-1 1.4574154303957662E-1
-3.652002873573496E-1 1.7949017481366258E-1
-3.3695014967356973E-1 2.0973922009758453E-1
-3.065884069560173E-1 2.363458735859556E-1
-2.745318932842903E-1 2.592119643506124E-1
-2.4119471841853976E-1 2.782828041755488E-1
-2.0698411312478565E-1 2.935456414008288E-1
-1.7229654755646165E-1 3.050277554774962E-1
-1.375141496571497E-1 3.12794229411005E-1
-1.0300144614591134E-1 3.1694543880021225E-1
-6.910244420264557E-2 3.1761429728674295E-1
-3.6138067572331296E-2 3.1496329878843304E-1
-4.403956449350439E-3 3.091813970553641E-1
2.583136375414538E-2 3.004807627936799E-1
5.4327943689925697E-2 2.890934579057505E-1
8.08755042203497E-2 2.752680653568241E-1
1.0529416996648396E-1 2.5926631178193554E-1
1.2743485222048487E-1 2.4135971816536095E-1
1.471792942469297E-1 2.218263119803058E-1
1.6443979498004152E-1 2.009474318533485E-1
1.7915862963690615E-1 1.790046533660988E-1
1.9130718800792554E-1 1.5627686200126856E-1
2.008848531130376E-1 1.330374963951169E-1
2.0791764448169944E-1 1.0955198216970821E-1
2.1245665160674052E-1 8.60753736879637E-2
2.145762840425518E-1 6.285021805365829E-2
2.1437236522204192E-1 4.010465265911267E-2
2.119600973762022E-1 1.8050744636636782E-2
2.074719249305121E-1 -3.1169223635280126E-3
2.010553234854527E-1 -2.322241146613944E-2
1.9287054095621928E-1 -4.210934603391043E-2
1.830883165936229E-1 -5.9641576018429884E-2
1.7188760262729452E-1 -7.570360229912108E-2
1.5945331203456514E-1 -9.02007664276444E-2
1.4597411449575914E-1 -1.0305921524324396E-1
1.3164030106820593E-1 -1.1422565162902207E-1
1.1664173635666479E-1 -1.2366688440402752E-1
1.0116591520043543E-1 -1.3136919181472587E-1
8.539613892810513E-2 -1.373375141737835E-1
6.950982431795108E-2 -1.4159449230023372E-1
5.367695648307111E-2 -1.4417936914851578E-1
3.805869481743118E-2 -1.451467724960673E-1
2.2806139199365385E-2 -1.4456539688542316E-1
8.059261829866262E-3 -1.4251660311544842E-1
-6.053991887125379E-3 -1.3909295356829346E-1
1.1992581164201863E-1 -6.941474949175849E-1
-1.9418431867118228E-2 -1.3439670147738553E-1
1.1997764411678098E-1 -6.941814363834553E-1
4.89018400193887E-2 -6.853769604849269E-1
-1.922432316004722E-2 -6.69917093274254E-1
-8.383972069551493E-2 -6.482845803604169E-1
-1.4444677966811045E-1 -6.21002634917184E-1
-2.0061353547026944E-1 -5.886275506202988E-1
-2.519749127801766E-1 -5.517413336406048E-1
-2.982332546376163E-1 -5.109444281416727E-1
-3.3915812993498057E-1 -4.6684860529887806E-1
-3.7458545571475566E-1 -4.2007008097854137E-1
-4.044159761497122E-1 -3.7122292182534955E-1
-4.2861314480667906E-1 -3.209127937235744E-1
-4.4720046080534687E-1 -2.697311006425142E-1
-4.6025831275583584E-1 -2.1824955544044186E-1
-4.6792038685707965E-1 -1.6701521794902896E-1
-4.7036969746104396E-1 -1.1654602892211835E-1
-4.6783429937740056E-1 -6.732686211585942E-2
-4.6058274177605535E-1 -1.9806110243145027E-2
-4.48919323265611E-1 2.5607185701628805E-2
-4.331792069292132E-1 6.85456603498415E-2
-4.1372345270573274E-1 1.0868540355357258E-1
-3.9093402259926713E-1 1.457472035728956E-1
-3.6520881180913034E-1 1.7949726703279867E-1
-3.3695675599911024E-1 2.097474335130797E-1
-3.065930617324618E-1 2.3635490711698234E-1
-2.745346035166565E-1 2.592215311846019E-1
-2.4119552711848996E-1 2.782926358755046E-1
-2.0698309467220785E-1 2.935554912464133E-1
-1.7229380295035918E-1 3.050374010678989E-1
-1.3750980175518496E-1 3.128034745307733E-1
-1.0299563498046205E-1 3.169541145915424E-1
-6.909532246325452E-2 3.1762226277490446E-1
-3.6129796316659454E-2 3.149704408030973E-1
-4.394701113220552E-3 3.091876296040219E-1
2.5841437004186847E-2 3.004860259548448E-1
5.433867121992686E-2 2.890977163035289E-1
8.088672777409148E-2 2.752713062814265E-1
1.0530573909053449E-1 2.592685430247366E-1
1.2744662623852E-1 2.4136096564941034E-1
1.4719114380865958E-1 2.2182661723041913E-1
1.6445160317810176E-1 2.009468493850554E-1
1.7917029271676074E-1 1.7900324805228898E-1
1.913186156977975E-1 1.5627470646140382E-1
2.0089596859401757E-1 1.3303466847453693E-1
2.07928384045202E-1 1.0954856253866053E-1
2.1246696402724677E-1 8.607144361167314E-2
2.145861297114566E-1 6.284585736028683E-2
2.143817150844677E-1 4.009993793402137E-2
2.1196893171085848E-1 1.8045747667823245E-2
2.0748023201710802E-1 -3.122135879287208E-3
2.010630981981547E-1 -2.322778293748721E-2
1.9287778332328503E-1 -4.211482471491827E-2
1.8309503036248992E-1 -5.9647119472928535E-2
1.718937938631751E-1 -7.570917658566342E-2
1.5945898778573042E-1 -9.020634602916636E-2
1.4597928155563183E-1 -1.0306478274295792E-1
1.3164496485008534E-1 -1.1423119713786348E-1
1.1664589991235952E-1 -1.2367240475886165E-1
1.0116957840736113E-1 -1.31374689547563E-1
8.539929786464308E-2 -1.3734299623951457E-1
6.951247088260876E-2 -1.415999685425245E-1
5.36790783248864E-2 -1.4418485042498713E-1
3.806027569231492E-2 -1.4515226832815664E-1
2.2807159987003858E-2 -1.445709124509569E-1
8.059702555085825E-3 -1.425221351840335E-1
-6.054148432315187E-3 -1.3909848484235487E-1
1.933812612489769E-1 -6.958955704109968E-1
-1.9419194029464504E-2 -1.344021925926234E-1
1.9343748689940815E-1 -6.95924868928367E-1
1.2002474850358243E-1 -6.942149298395418E-1
4.894030736434666E-2 -6.854133197189628E-1
-1.9193951710642962E-2 -6.699551297278398E-1
-8.381685614783758E-2 -6.483232440215274E-1
-1.4443079378698434E-1 -6.210410104061467E-1
-2.0060376975182936E-1 -5.886648524674613E-1
-2.5197068790773935E-1 -5.517769010699741E-1
-2.9823388024646813E-1 -5.109777193962136E-1
-3.3916291440341667E-1 -4.6687919146272944E-1
-3.745937156928474E-1 -4.2009763926506966E-1
-4.0442704557190073E-1 -3.712472283142516E-1
-4.2862638318104374E-1 -3.209337155836003E-1
-4.4721526061080863E-1 -2.6974858790772777E-1
-4.6027410583272266E-1 -2.1826363242981328E-1
-4.6793664971881327E-1 -1.6702597444076595E-1
-4.7038595548219136E-1 -1.1655361120337594E-1
-4.6785012984511143E-1 -6.733146404115158E-2
-4.605977758385739E-1 -1.9807964407466256E-2
-4.489332468117634E-1 2.5607816545580645E-2
-4.3319176045952934E-1 6.854849151416018E-2
-4.137344302871221E-1 1.0869013619750753E-1
-3.909432699803213E-1 1.4575353193792712E-1
-3.6521622380793345E-1 1.7950488506797982E-1
-3.36962273274067E-1 2.097560408462224E-1
-3.0659666703571914E-1 2.3636421430981075E-1
-2.7453631755840663E-1 2.592312642515311E-1
-2.411954041401024E-1 2.783025400586238E-1
-2.069812178441657E-1 2.935653340405565E-1
-1.722902796973768E-1 3.050469745167238E-1
-1.3750475910214252E-1 3.1281259681391205E-1
-1.0298921500679005E-1 3.16962630937462E-1
-6.908767793923495E-2 3.1763004574629594E-1
-3.612108660232736E-2 3.1497739001258074E-1
-4.3850883608920945E-3 3.091936709076485E-1
2.5851791286180828E-2 3.004911101930847E-1
5.434960921870378E-2 2.8910181764545767E-1
8.089809799841712E-2 2.752744202587964E-1
1.0531739857307597E-1 2.5927068430428146E-1
1.2745844230615616E-1 2.4136216561155724E-1
1.4720299541583237E-1 2.2182692143745086E-1
1.644633818354215E-1 2.0094631497786689E-1
1.791819030123257E-1 1.7900194115228102E-1
1.91329975456363E-1 1.562726996188427E-1
2.0090700869794295E-1 1.3303203821426599E-1
2.0793904794952395E-1 1.0954538705813799E-1
2.1247720701872608E-1 8.606780064742994E-2
2.145959179362277E-1 6.28418222748701E-2
2.143910244018511E-1 4.0095582038799336E-2
2.1197774640903322E-1 1.8041136793335674E-2
2.0748854342846343E-1 -3.126942537530142E-3
2.010709032605306E-1 -2.3232733700666478E-2
1.9288508311738822E-1 -4.211987602300895E-2
1.83101828666235E-1 -5.965223621765113E-2
1.7190009575389095E-1 -7.57143321773495E-2
1.5946479830910293E-1 -9.021152220590947E-2
1.45984604492009E-1 -1.0306996914093751E-1
1.3164980159828724E-1 -1.1423639063029098E-1
1.1665024850457217E-1 -1.2367760857341581E-1
1.0117343267902387E-1 -1.3137991217146228E-1
8.540264680378525E-2 -1.373482500986671E-1
6.951529819133012E-2 -1.4160526839285306E-1
5.3681362293859475E-2 -1.4419021139749738E-1
3.806198951723386E-2 -1.4515770343331447E-1
2.2808272806486528E-2 -1.445764292212018E-1
8.060181722649006E-3 -1.4252773093871696E-1
-6.054332998337262E-3 -1.391041396464304E-1
2.6849957333684565E-1 -6.901630283736965E-1
-1.9420062001811834E-2 -1.344078586421805E-1
2.6855978135143016E-1 -6.901871477578522E-1
1.934885950444527E-1 -6.959541423073997E-1
1.2006720038245165E-1 -6.942479345652552E-1
4.897459798074541E-2 -6.854487829218422E-1
-1.916728114229579E-2 -6.699919233206016E-1
-8.379722358277002E-2 -6.48360378569692E-1
-1.444175829576259E-1 -6.210776290406003E-1
-2.0059633804568022E-1 -5.887002249942678E-1
-2.519683751747953E-1 -5.518104181289605E-1
-2.98236018114063E-1 -5.110088864510145E-1
-3.391688356959565E-1 -4.669076224329295E-1
-3.7460276360285083E-1 -4.2012304971480036E-1
-4.044385823055481E-1 -3.7126942815383296E-1
-4.286397978593562E-1 -3.209526013003268E-1
-4.472299762674697E-1 -2.6976413439466557E-1
-4.602895853941627E-1 -2.1827588449912938E-1
-4.679524009054835E-1 -1.6703503812927253E-1
-4.704015345926035E-1 -1.1655964499587725E-1
-4.678651444302775E-1 -6.733467012650778E-2
-4.6061188628666705E-1 -1.9808580094719988E-2
-4.489461668979916E-1 2.560952713893773E-2
-4.332032569302047E-1 6.855224539743293E-2
-4.1374432155494506E-1 1.0869563896601378E-1
-3.9095142404198935E-1 1.4576048469133354E-1
-3.652225554639071E-1 1.7951299069496957E-1
-3.3696674077992755E-1 2.0976500964869338E-1
-3.065992682873593E-1 2.3637376891718329E-1
-2.7453708592271003E-1 2.592411438029073E-1
-2.4119440404802325E-1 2.7831250365379E-1
-2.069785402347557E-1 2.935751634473718E-1
-1.7228603743475035E-1 3.050564761753453E-1
-1.374990824362938E-1 3.1282160314297386E-1
-1.0298224717753367E-1 3.1697100100061587E-1
-6.907957098278134E-2 3.176376653149976E-1
-3.611199743488491E-2 3.149841710774296E-1
-4.375175188101043E-3 3.0919955070312855E-1
2.5862372200354873E-2 3.004960497937793E-1
5.4360706375992975E-2 2.891058002077855E-1
8.09095670840758E-2 2.752774489571482E-1
1.0532910443338718E-1 2.5927278005743293E-1
1.2747026050847285E-1 2.413633646307486E-1
1.4721481338241238E-1 2.2182727268757263E-1
1.6447509957128442E-1 2.009458776022704E-1
1.7919343345795447E-1 1.790007819038426E-1
1.9134124447346887E-1 1.5627089038557504E-1
2.0091795474698798E-1 1.3302965363798347E-1
2.0794962147182397E-1 1.0954250232885898E-1
2.124873695787718E-1 8.606448948427982E-2
2.14605641160804E-1 6.283815512552529E-2
2.1440028875341002E-1 4.0091624532246906E-2
2.1198653983839688E-1 1.8036948444566974E-2
2.0749685994736466E-1 -3.1313093462040377E-3
2.0107874147316832E-1 -2.3237234467116574E-2
1.9289244474221418E-1 -4.2124474600157155E-2
1.831087170798116E-1 -5.965690501264827E-2
1.7190651459109937E-1 -7.571905210203626E-2
1.5947075013748152E-1 -9.021628238196411E-2
1.4599008957686654E-1 -1.0307476637742524E-1
1.3165481677517138E-1 -1.1424122868346316E-1
1.1665478617439974E-1 -1.2368249721477753E-1
1.011774799292024E-1 -1.3138486605086747E-1
8.540618467605483E-2 -1.3735328739499764E-1
6.951830113910243E-2 -1.4161040920617987E-1
5.3683797899184434E-2 -1.4419547574116845E-1
3.806381865219706E-2 -1.451631086335633E-1
2.2809450580839746E-2 -1.445819862391813E-1
8.060659902233844E-3 -1.4253343880433922E-1
-6.054600787200565E-3 -1.3910997658451102E-1
3.445491347921509E-1 -6.766286395168563E-1
-1.942111000810319E-2 -1.3441376767635138E-1
3.4461284509550927E-1 -6.76647078311392E-1
2.6861447043459796E-1 -6.902117262723876E-1
1.9353467483348696E-1 -6.959833368406008E-1
1.2010512246368929E-1 -6.942803858666948E-1
4.900485442165705E-2 -6.85483285932247E-1
-1.914415839365067E-2 -6.700274171971711E-1
-8.378066590909371E-2 -6.483959381943133E-1
-1.4440699069435492E-1 -6.211124578584646E-1
-2.0059108788889526E-1 -5.887336486714513E-1
-2.5196782873101925E-1 -5.518418785222914E-1
-2.982395310039638E-1 -5.11037935529216E-1
-3.391757667444386E-1 -4.6693391590279415E-1
-3.746124837411079E-1 -4.201463402302231E-1
-4.0445048290570806E-1 -3.712895580582571E-1
-4.286532982847309E-1 -3.2096949492932764E-1
-4.4724453049563473E-1 -2.6977778999720864E-1
-4.6030468760753546E-1 -2.1828636588362518E-1
-4.6796759000137933E-1 -1.6704246612573517E-1
-4.7041639758048975E-1 -1.1656418887233376E-1
-4.678793187348581E-1 -6.733653908003985E-2
-4.6062506099726025E-1 -1.9808014910198686E-2
-4.489580830037939E-1 2.5612262112784775E-2
-4.332137066343284E-1 6.855686988423076E-2
-4.1375314673760566E-1 1.0870186390013166E-1
-3.909585139825141E-1 1.457680187906647E-1
-3.652278439278197E-1 1.795215464225663E-1
-3.369702025631469E-1 2.0977430848264453E-1
-3.0660091535432527E-1 2.3638354592921734E-1
-2.7453696322211774E-1 2.592511515044552E-1
-2.4119258513283132E-1 2.7832251512194733E-1
-2.069751227811044E-1 2.9358497473354567E-1
-1.722811387507527E-1 3.0506590801203404E-1
-1.374928350623161E-1 3.1283050199390267E-1
-1.029747946371237E-1 3.1697923947358125E-1
-6.907106377433815E-2 3.1764514201897853E-1
-3.610258930680475E-2 3.149908099406065E-1
-4.365019756958447E-3 3.0920529984115785E-1
2.587312446762568E-2 3.00500879970759E-1
5.4371910769252164E-2 2.8910970297628014E-1
8.092108683970566E-2 2.752804345316549E-1
1.0534081250738651E-1 2.5927487497552854E-1
1.2748204091661114E-1 2.4136460929954082E-1
1.472265621424044E-1 2.2182771883979302E-1
1.6448672523732846E-1 2.009455857539702E-1
1.7920485729754398E-1 1.789998188397727E-1
1.9135240030198514E-1 1.5626932674358665E-1
2.0092878845421755E-1 1.330275616267706E-1
2.0796009028525422E-1 1.0953995361354983E-1
2.1249744109436744E-1 8.606155328630528E-2
2.1461529219482967E-1 6.28348965489102E-2
2.1440950404700773E-1 4.0088103134383525E-2
2.1199531065282054E-1 1.8033217082063176E-2
2.0750518259811335E-1 -3.135205401539608E-3
2.0108661583474105E-1 -2.3241258143300383E-2
1.9289987275336737E-1 -4.212859736779918E-2
1.8311570128584778E-1 -5.966110697197122E-2
1.7191305673915314E-1 -7.57233218172833E-2
1.5947684984375948E-1 -9.022061649130157E-2
1.459957430860583E-1 -1.0307916899440722E-1
1.3166001580621062E-1 -1.1424571060493062E-1
1.1665951686171083E-1 -1.2368707495475553E-1
1.0118172185898758E-1 -1.3138956071289E-1
8.540991001101694E-2 -1.3735812334347652E-1
6.952147387016006E-2 -1.4161541251272394E-1
5.3686373287799634E-2 -1.4420067224143346E-1
3.80657430443762E-2 -1.4516852128953697E-1
2.2810662038880578E-2 -1.4458763119832987E-1
8.061090595649556E-3 -1.425393189132412E-1
-6.0550184507578595E-3 -1.3911607007704507E-1
4.2075074366242576E-1 -6.550395207270069E-1
-1.942242977372497E-2 -1.3442000812792831E-1
4.2081740673208606E-1 -6.550518216648035E-1
3.446706176211991E-1 -6.766665308063575E-1
2.6866374740472854E-1 -6.902366927795844E-1
1.9357587006029067E-1 -6.960123676434231E-1
1.2013867885995061E-1 -6.943121996946637E-1
4.903125050136033E-2 -6.855167536303889E-1
-1.9124406896846826E-2 -6.700615493534647E-1
-8.376700852540866E-2 -6.48429875882644E-1
-1.443988477032468E-1 -6.211454653342069E-1
-2.0058785776211557E-1 -5.887651071084156E-1
-2.519688967056316E-1 -5.518712801228752E-1
-2.982442781416137E-1 -5.110648775740665E-1
-3.391835789871249E-1 -4.669580944906011E-1
-3.7462276060139343E-1 -4.201675435872291E-1
-4.0446264551883115E-1 -3.7130765938156335E-1
-4.2866679663344703E-1 -3.209844447996686E-1
-4.472588496708069E-1 -2.697896084310432E-1
-4.6031935302490923E-1 -2.1829513412773613E-1
-4.6798217152588184E-1 -1.6704831831118913E-1
-4.704305125580772E-1 -1.1656730363610246E-1
-4.6789263394392105E-1 -6.733713129489122E-2
-4.6063729356397115E-1 -1.9806327619326748E-2
-4.4896900035185366E-1 2.5615965434926728E-2
-4.332231255377351E-1 6.856231264929293E-2
-4.137609315774596E-1 1.0870876322792272E-1
-3.909645742955491E-1 1.457760917419629E-1
-3.65232131366303E-1 1.7953051561065128E-1
-3.369727073654886E-1 2.097839070127612E-1
-3.0660166243842213E-1 2.363935216278979E-1
-2.7453600801854056E-1 2.5926127045002767E-1
-2.411900092388475E-1 2.783325644403498E-1
-2.069710295665977E-1 2.9359476471552265E-1
-1.722756489790646E-1 3.05075273537382E-1
-1.374860826286841E-1 3.128393033218849E-1
-1.0296692249222548E-1 3.1698736243434433E-1
-6.906222009363244E-2 3.1765249765135156E-1
-3.609292397192218E-2 3.149973336425733E-1
-4.354681177520721E-3 3.092109500804897E-1
2.5883992145213707E-2 3.0050563663998836E-1
5.438317005798918E-2 2.891135654245375E-1
8.0932608877742E-2 2.752834193846219E-1
1.0535247861618519E-1 2.5927701376235457E-1
1.2749374374215702E-1 2.413659459784447E-1
1.4723820638961835E-1 2.218283072840936E-1
1.6449822803386913E-1 2.0094548722813937E-1
1.7921614819224072E-1 1.7899909955946267E-1
1.913634209493849E-1 1.562680555280298E-1
2.0093949200605463E-1 1.3302580770922082E-1
2.0797044053224598E-1 1.0953778463899586E-1
2.125074114036515E-1 8.605903351720648E-2
2.1462486427372438E-1 6.283208532466873E-2
2.1441866658105466E-1 4.008505357540347E-2
2.1200405785634785E-1 1.802997506373259E-2
2.075135127136357E-1 -3.138601996655703E-3
2.01094529613041E-1 -2.324477990978464E-2
1.9290737194840527E-1 -4.213222359685877E-2
1.8312278718878897E-1 -5.966482562213119E-2
1.7191972877001363E-1 -7.572712925308292E-2
1.594831042086188E-1 -9.022451701089557E-2
1.4600157151020804E-1 -1.0308317416792914E-1
1.3166540433574841E-1 -1.1424983846218559E-1
1.1666444471635642E-1 -1.2369134902468018E-1
1.0118616032381125E-1 -1.3139400894150072E-1
8.541382134336058E-2 -1.3736277688554163E-1
6.952481021203778E-2 -1.4162030432663375E-1
5.368907562755583E-2 -1.442058353432174E-1
3.806774041111156E-2 -1.451739862844362E-1
2.2811871432061176E-2 -1.4459342224181754E-1
8.06141894718053E-3 -1.425454463068636E-1
-6.055667308327607E-3 -1.3912251576539955E-1
4.9628365557080273E-1 -6.25217373246093E-1
-1.942413678616324E-2 -1.3442669697286874E-1
4.963526518606327E-1 -6.252231339384394E-1
4.2087768696396904E-1 -6.550657736878084E-1
3.4472258290623115E-1 -6.766869018833218E-1
2.687077831232737E-1 -6.902619357115333E-1
1.9361237143576063E-1 -6.960411252419173E-1
1.2016806810802337E-1 -6.943432781746086E-1
4.905398531098067E-2 -6.855491042450943E-1
-1.9107831605387596E-2 -6.700942558872183E-1
-8.375606352102571E-2 -6.484621458229292E-1
-1.4439297540652485E-1 -6.211766231081681E-1
-2.0058648006000662E-1 -5.887945882658195E-1
-2.5197142372526643E-1 -5.518986257945552E-1
-2.982501173623983E-1 -5.110897287678055E-1
-3.391921442089218E-1 -4.6698018602584607E-1
-3.746334804482866E-1 -4.2018669754994176E-1
-4.0447497122672316E-1 -3.7132377810330003E-1
-4.286802089529724E-1 -3.209975034087162E-1
-4.4727286477835054E-1 -2.69799647058793E-1
-4.6033352736811456E-1 -2.1830224987419508E-1
-4.6799610557988197E-1 -1.6705265709406888E-1
-4.704438534908853E-1 -1.1656905205130091E-1
-4.679050772337134E-1 -6.733650858650052E-2
-4.6064858360336824E-1 -1.9803577897444417E-2
-4.489789301182955E-1 2.5620580631313318E-2
-4.33231535411402E-1 6.856852135999017E-2
-4.1376770739775337E-1 1.0871628954890235E-1
-3.9096964476710355E-1 1.457846617386552E-1
-3.652354649045172E-1 1.7953986257578208E-1
-3.369743085114421E-1 2.0979377606868627E-1
-3.0660156793039745E-1 2.3640367362373382E-1
-2.7453428264311647E-1 2.5927148515963633E-1
-2.4118674155415243E-1 2.783426430619809E-1
-2.0696632759182618E-1 2.936045316835278E-1
-1.722696359502165E-1 3.050845776888529E-1
-1.374788928822047E-1 3.1284801843021043E-1
-1.0295869756227691E-1 3.1699538718407017E-1
-6.905310507495395E-2 3.1765975507792465E-1
-3.6083064204757105E-2 3.1500377011668484E-1
-4.344219283421422E-3 3.0921653388088904E-1
2.589491883830144E-2 3.005103561941335E-1
5.439443168348724E-2 2.891174272764833E-1
8.094408479088644E-2 2.752864459368527E-1
1.0536405873260815E-1 2.5927924089368715E-1
1.275053294805399E-1 2.413674205640373E-1
1.472497112123978E-1 2.2182908470199916E-1
1.645095776291902E-1 2.0094562888787176E-1
1.7922728031897575E-1 1.7899867051483329E-1
1.913742849677469E-1 1.5626712222178318E-1
2.009500481406915E-1 1.330244358760342E-1
2.0798065890346248E-1 1.095360374144775E-1
2.1251727087096176E-1 8.605696977007854E-2
2.1463435112716897E-1 6.282975823107148E-2
2.144277731176467E-1 4.008250946455736E-2
2.1201278088610667E-1 1.8027252528206635E-2
2.0752185203207665E-1 -3.141472726963527E-3
2.0110248646052553E-1 -2.324777731603431E-2
1.929149474975283E-1 -4.21353349780556E-2
1.831299810715392E-1 -5.9668046958512515E-2
1.7192653765558816E-1 -7.573046485439074E-2
1.5948952044907203E-1 -9.022797898384316E-2
1.4600758182950418E-1 -1.0308678171959576E-1
1.316709885575499E-1 -1.1425361708877799E-1
1.1666957449075134E-1 -1.236953296147021E-1
1.0119079780526273E-1 -1.313982268134212E-1
8.541791775928777E-2 -1.3736727078971037E-1
6.952830426257338E-2 -1.4162511537403283E-1
5.3691891680542225E-2 -1.4421100568643563E-1
3.806978661831951E-2 -1.451795571489575E-1
2.281303830095865E-2 -1.445994302193518E-1
8.061580030289459E-3 -1.425519153048049E-1
-6.056648108545682E-3 -1.39129438513755E-1
5.702923970042929E-1 -5.870642226382273E-1
-1.942638017747411E-2 -1.3443399278580825E-1
5.70363035153742E-1 -5.87063108533667E-1
4.9641478006989415E-1 -6.252312841598475E-1
4.2093174788701426E-1 -6.550812476910148E-1
3.447689474856431E-1 -6.767080439477932E-1
2.6874680176610805E-1 -6.902873126094177E-1
1.936444073976866E-1 -6.960694831833864E-1
1.2019351565402005E-1 -6.943735153456443E-1
4.9073277149923676E-2 -6.855802535822361E-1
-1.9094223928892057E-2 -6.701254740391047E-1
-8.37476337251843E-2 -6.484927055631884E-1
-1.443891892988334E-1 -6.212059074937761E-1
-2.0058678389642115E-1 -5.888220854795753E-1
-2.5197525327684617E-1 -5.519239240508432E-1
-2.982569071054785E-1 -5.111125109253256E-1
-3.3920133622804793E-1 -4.6700022373916444E-1
-3.7464453274692816E-1 -4.202038449059017E-1
-4.044873652536551E-1 -3.7133796475017844E-1
-4.2869345618144283E-1 -3.2100872726366014E-1
-4.4728651226538946E-1 -2.698079666797727E-1
-4.6034716223562155E-1 -2.1830777661306286E-1
-4.6800935840509483E-1 -1.670555471568932E-1
-4.7045640062848265E-1 -1.1656949859193604E-1
-4.679166420973887E-1 -6.733473394478388E-2
-4.606589369778459E-1 -1.97998261009126E-2
-4.48987889568216E-1 2.5626050996697354E-2
-4.332389638788416E-1 6.85754438405735E-2
-4.1377351108324334E-1 1.0872439597027093E-1
-3.9097377039966946E-1 1.4579368777087845E-1
-3.65237896501359E-1 1.7954955266191194E-1
-3.369750637446016E-1 2.09803887679768E-1
-3.0660069420359476E-1 2.3641398083867668E-1
-2.745318529726466E-1 2.592817815366163E-1
-2.4118285036728415E-1 2.783527438362329E-1
-2.0696108652625686E-1 2.936142753019027E-1
-1.7226316973930697E-1 3.050938267053016E-1
-1.3747133540700868E-1 3.1285665981452626E-1
-1.029501881228173E-1 3.170033320736028E-1
-6.904378495449266E-2 3.176669380426699E-1
-3.607307355933066E-2 3.15010147978568E-1
-4.333694396999992E-3 3.0922208416964153E-1
2.5905847913130144E-2 3.005150752778841E-1
5.440564307320521E-2 2.8912132826221704E-1
8.09554663430836E-2 2.752895563771011E-1
1.0537550915269943E-1 2.592816003752783E-1
1.2751675906781657E-1 2.4136907824763984E-1
1.472610422228672E-1 2.2183009684657345E-1
1.6452074428196456E-1 2.0094605644132568E-1
1.7923822848033352E-1 1.789985767996207E-1
1.9138497154838086E-1 1.562665707572976E-1
2.0096044023139464E-1 1.330234883948552E-1
2.0799073270754792E-1 1.0953475207687219E-1
2.125270104586882E-1 8.605539962287113E-2
2.1464374705518854E-1 6.282794991525255E-2
2.144368209576032E-1 4.008050218740564E-2
2.1202147969329366E-1 1.8025077309018096E-2
2.075302027880598E-1 -3.143793550719354E-3
2.01110490524621E-1 -2.3250230322351628E-2
1.929226050815867E-1 -4.2137915647407445E-2
1.8313728976126312E-1 -5.967075944646497E-2
1.7193349097677937E-1 -7.573332156666124E-2
1.5949610648059562E-1 -9.02309999919936E-2
1.4601378184027936E-1 -1.0308999406895916E-1
1.3167677562538954E-1 -1.1425705402776708E-1
1.1667491205013193E-1 -1.2369902981477007E-1
1.0119563802826888E-1 -1.3140223363845E-1
8.5422199642093E-2 -1.3737163166073144E-1
6.953195125456095E-2 -1.416298812497151E-1
5.369480870362268E-2 -1.4421623058268995E-1
3.8071856399059335E-2 -1.4518529727553373E-1
2.281411741987559E-2 -1.4460574148813746E-1
8.061496635194869E-3 -1.4255884558907303E-1
-6.058088238694919E-3 -1.3913700481364588E-1
6.41894314499935E-1 -5.405675684189298E-1
-1.9429359267620776E-2 -1.344421177096993E-1
6.41965826372462E-1 -5.405593299755268E-1
5.704262574894787E-1 -5.870652508650102E-1
4.964702514521559E-1 -6.252416448004365E-1
4.2097984440799E-1 -6.550980462227354E-1
3.4480997852447887E-1 -6.767297710781756E-1
2.687810684860973E-1 -6.903126608032589E-1
1.936722345336006E-1 -6.960973057393794E-1
1.2021526640573307E-1 -6.94402802590666E-1
4.908935766979468E-2 -6.85610118821794E-1
-1.9083366393101563E-2 -6.701551448476664E-1
-8.374151647743462E-2 -6.485215178392937E-1
-1.443873020395216E-1 -6.212333007078537E-1
-2.0058859767575787E-1 -5.888475982511356E-1
-2.519802298607074E-1 -5.51947189526924E-1
-2.982645082358934E-1 -5.111332517216765E-1
-3.392110324348401E-1 -4.67018246322464E-1
-3.746558114623739E-1 -4.202190334053178E-1
-4.0449973805315137E-1 -3.713502742537539E-1
-4.287064650437185E-1 -3.2101817668113714E-1
-4.4729973476901685E-1 -2.698146312952923E-1
-4.603602156809301E-1 -2.183117804303767E-1
-4.68021902844165E-1 -1.6705705518610114E-1
-4.7046814084543426E-1 -1.1656870918292847E-1
-4.6792732857990743E-1 -6.733187129417638E-2
-4.6066836594093385E-1 -1.97951330513898E-2
-4.489959021222777E-1 2.5632319785966615E-2
-4.33245444419657E-1 6.858302824636124E-2
-4.1377838501733466E-1 1.0873303623244734E-1
-3.909770012960354E-1 1.4580312971433054E-1
-3.652394827842426E-1 1.7955955228782675E-1
-3.369750350315071E-1 2.0981421509398757E-1
-3.065991073912498E-1 2.3642442349546197E-1
-2.7452878817666726E-1 2.5929214681299995E-1
-2.4117840680176222E-1 2.7836286092704415E-1
-2.0695537842391695E-1 2.9362399648390947E-1
-1.7225632238242727E-1 3.051030279808855E-1
-1.3746348134509864E-1 3.1286524099116475E-1
-1.0294146363391692E-1 3.17011216315611E-1
-6.903432680932563E-2 3.176740709629637E-1
-3.606301612180325E-2 3.15016496313539E-1
-4.323167095255858E-3 3.0922763411391535E-1
2.5916722722133755E-2 3.0051983053947345E-1
5.4416751838405934E-2 2.8912530788632124E-1
8.096670564977398E-2 2.7529279242656274E-1
1.0538678665388845E-1 2.5928413551194857E-1
1.2752799402741005E-1 2.4137096328362456E-1
1.4727216569329357E-1 2.2183138831686897E-1
1.6453169895262493E-1 2.0094681424069152E-1
1.7924896820783512E-1 1.7899886195274495E-1
1.9139546061679213E-1 1.562664433385126E-1
2.0097065237935466E-1 1.3302300564179276E-1
2.0800064996031006E-1 1.0953396673320706E-1
2.1253662180549554E-1 8.605435851176448E-2
2.1465304700789822E-1 6.282669278302816E-2
2.1444580803015875E-1 4.007906081100091E-2
2.1203015484163568E-1 1.8023474866440972E-2
2.0753856783118185E-1 -3.1455428426448886E-3
2.0111854658641273E-1 -2.3252121325172712E-2
1.9293035106134154E-1 -4.213995219082981E-2
1.8314472084190794E-1 -5.967295400539003E-2
1.719405971810753E-1 -7.573569478729421E-2
1.595028712407671E-1 -9.023358008223055E-2
1.460201805592611E-1 -1.0309281613303396E-1
1.3168277415911672E-1 -1.1426015939479454E-1
1.166804650170458E-1 -1.2370246546264134E-1
1.0120068678019356E-1 -1.3140605180158377E-1
8.542666968648649E-2 -1.3737588978380003E-1
6.953574879381391E-2 -1.4163464237756673E-1
5.369781586601873E-2 -1.4422156432106545E-1
3.80739246824016E-2 -1.4519128110510512E-1
2.2815059210933E-2 -1.446124612704993E-1
8.061076523462576E-3 -1.4256639074678046E-1
-6.060153075799837E-3 -1.3914544271466173E-1
7.101878226691809E-1 -4.85804848335702E-1
-1.9433353144089605E-2 -1.3445139682029514E-1
7.102593508026287E-1 -4.8578934735326934E-1
6.42029276201274E-1 -5.405553860974214E-1
5.704823476465819E-1 -5.870703937277263E-1
4.965193886343062E-1 -6.252539475130033E-1
4.2102230015534375E-1 -6.551159251145774E-1
3.4484598695496277E-1 -6.767518742318107E-1
2.6881087707161855E-1 -6.903378077660139E-1
1.9369612844546785E-1 -6.961244549159209E-1
1.2023357784799439E-1 -6.944310334216919E-1
4.910246654768159E-2 -6.856386217735876E-1
-1.9075036860698814E-2 -6.70183215347433E-1
-8.373750703945387E-2 -6.485485520369202E-1
-1.4438712625067104E-1 -6.212587918172242E-1
-2.0059175141215185E-1 -5.888711328240138E-1
-2.51986200926081E-1 -5.519684432915987E-1
-2.982727856566244E-1 -5.111519848196656E-1
-3.3922111514260794E-1 -4.670342979105989E-1
-3.746672161825957E-1 -4.2023231564131763E-1
-4.0451200624520733E-1 -3.713607657533882E-1
-4.287191688205709E-1 -3.21025915547253E-1
-4.4731248173885074E-1 -2.6981970784213904E-1
-4.6037265269953775E-1 -2.1831432973919992E-1
-4.6803371869961113E-1 -1.6705724961326288E-1
-4.704790679002136E-1 -1.1656675094727943E-1
-4.679371434395049E-1 -6.73279852598324E-2
-4.606768892119361E-1 -1.9789559824402853E-2
-4.490029973491488E-1 2.5639330379755708E-2
-4.332510162916455E-1 6.859122319004857E-2
-4.137823769490611E-1 1.0874216480531526E-1
-3.909793924824423E-1 1.458129483883677E-1
-3.652402848374913E-1 1.795698289748227E-1
-3.3697428831195403E-1 2.0982473275618818E-1
-3.065968771197017E-1 2.364349830677851E-1
-2.745251604370952E-1 2.5930256946931873E-1
-2.411734845251447E-1 2.7837298970103747E-1
-2.0694927743306932E-1 2.936336972596238E-1
-1.7224916757943143E-1 3.051121898989564E-1
-1.374554031042723E-1 3.128737763109175E-1
-1.029325944534255E-1 3.170190597748554E-1
-6.902479828240655E-2 3.176811787072057E-1
-3.6052956249093764E-2 3.150228444401786E-1
-4.312697974411702E-3 3.092332168979537E-1
2.5927486816825374E-2 3.005246584077178E-1
5.442770597380909E-2 2.891294051956918E-1
8.097775535768702E-2 2.752961951133887E-1
1.0539784865905703E-1 2.592868886848582E-1
1.2753899660651982E-1 2.4137311878788073E-1
1.4728304867995504E-1 2.2183300235480316E-1
1.6454241341776493E-1 2.0094794508543365E-1
1.7925947585561414E-1 1.7899956778741882E-1
1.914057329166936E-1 1.5626678028190785E-1
2.009806694868051E-1 1.3302302596969812E-1
2.0801039945865105E-1 1.0953371734196507E-1
2.12546097310317E-1 8.605387962317428E-2
2.1466224667341846E-1 6.282601691593044E-2
2.1445473299038265E-1 4.007821201970851E-2
2.1203880762097566E-1 1.8022468243324926E-2
2.0754695075726123E-1 -3.1467014113585427E-3
2.011266602215511E-1 -2.3253435159941015E-2
1.929381926694858E-1 -4.214143361411676E-2
1.8315228289245528E-1 -5.967462394971708E-2
1.7194786588250946E-1 -7.573758227543356E-2
1.5950982506499278E-1 -9.023572163073366E-2
1.460267887074941E-1 -1.0309525514597576E-1
1.316889948704561E-1 -1.1426294564900338E-1
1.1668624357446959E-1 -1.2370565483571208E-1
1.0120595295973453E-1 -1.3140970639216334E-1
8.543133428329173E-2 -1.3738007871183508E-1
6.95396986456945E-2 -1.416394436157285E-1
5.3700906456496146E-2 -1.4422706802858085E-1
3.807596899944294E-2 -1.451975949389623E-1
2.2815811273767864E-2 -1.446197173675479E-1
8.06020939393746E-3 -1.4257475016019325E-1
-6.063064396940418E-3 -1.3915507510259578E-1
7.742613128568521E-1 -4.229471156156987E-1
-1.943877816756809E-2 -1.344623354077252E-1
7.743318787901033E-1 -4.229243735012036E-1
7.103220128193052E-1 -4.8577941925531437E-1
6.420850635037638E-1 -5.405553566228788E-1
5.705317262520995E-1 -5.870781648103431E-1
4.965625909880438E-1 -6.252678686467664E-1
4.2105948393287035E-1 -6.551346153706685E-1
3.4487731140501476E-1 -6.767741352238753E-1
2.6883653869101326E-1 -6.903625801453074E-1
1.9371637559101E-1 -6.9615079635583E-1
1.2024871391954581E-1 -6.944581073608357E-1
4.911284677003146E-2 -6.856656914528845E-1
-1.9069012256103347E-2 -6.702096402698426E-1
-8.373540159237634E-2 -6.485737852902239E-1
-1.4438847697473622E-1 -6.212823774062733E-1
-2.0059607876340743E-1 -5.888927025509224E-1
-2.519930185750445E-1 -5.519877129864184E-1
-2.982816097404874E-1 -5.111687498462243E-1
-3.3923147278368365E-1 -4.6704842795271473E-1
-3.746786531098935E-1 -4.202437488504382E-1
-4.0452409341948226E-1 -3.713695023566069E-1
-4.287315079949806E-1 -3.2103201104446405E-1
-4.4732470993728296E-1 -2.6982326590995365E-1
-4.6038444560709235E-1 -2.1831549499237898E-1
-4.6804479299817E-1 -1.6705620034355675E-1
-4.704891825908086E-1 -1.165636919645229E-1
-4.679461002161446E-1 -6.732314095893806E-2
-4.606845319673927E-1 -1.978316757311962E-2
-4.490092108964588E-1 2.564702643922716E-2
-4.332557244050452E-1 6.859997785545936E-2
-4.137855398174063E-1 1.0875173696639383E-1
-3.909810036850123E-1 1.4582310558983966E-1
-3.65240367946269E-1 1.7958035134344794E-1
-3.369728932196005E-1 2.0983541627434307E-1
-3.065940762027785E-1 2.364456422005674E-1
-2.745210446329285E-1 2.593130391284186E-1
-2.411681594260939E-1 2.783831265891082E-1
-2.069428594742113E-1 2.9364338061266243E-1
-1.7224178038329008E-1 3.0512132165424893E-1
-1.3744717405509183E-1 3.128822807625274E-1
-1.0292365155086837E-1 3.170268827609572E-1
-6.901526731407331E-2 3.1768828637970886E-1
-3.604295832011126E-2 3.15029221689074E-1
-4.302347410759592E-3 3.0923886548052076E-1
2.5938084168727765E-2 3.005295948516461E-1
5.443845405746243E-2 2.891336585398249E-1
8.09885688233902E-2 2.7529980454244535E-1
1.0540865339913248E-1 2.592899011240917E-1
1.2754972992795555E-1 2.413755865130814E-1
1.4729365914834328E-1 2.218349806520426E-1
1.6455286038450775E-1 2.0094949004013266E-1
1.7926972871142086E-1 1.790007342188692E-1
1.9141577011191216E-1 1.5626761986335555E-1
2.0099047735312212E-1 1.3302358557077884E-1
2.080199708683304E-1 1.0953403760735167E-1
2.125554302167171E-1 8.605399381315657E-2
2.1467134256951848E-1 6.282595000834125E-2
2.1446359531883843E-1 4.007798007890193E-2
2.1204744016602278E-1 1.802207804862756E-2
2.0755535604975645E-1 -3.147252487018828E-3
2.0113483796948037E-1 -2.325415905185286E-2
1.9294613822591486E-1 -4.21423512678071E-2
1.8315998575690973E-1 -5.967576487664515E-2
1.7195530820830468E-1 -7.573898400361272E-2
1.595169801336039E-1 -9.023742914374132E-2
1.4603361928740902E-1 -1.0309732038587631E-1
1.316954513249481E-1 -1.1426542723277726E-1
1.166922614919529E-1 -1.2370861818229013E-1
1.0121144996196885E-1 -1.3141322457113705E-1
8.54362054107177E-2 -1.373842344463933E-1
6.954380933540553E-2 -1.4164433325074022E-1
5.370408139125655E-2 -1.4423280865484064E-1
3.807797387103041E-2 -1.4520433666595908E-1
2.2816322477112874E-2 -1.4462766335452773E-1
8.058764880717214E-3 -1.4258418481312043E-1
-6.067130709956863E-3 -1.3916637744749422E-1
8.332026973148378E-1 -3.5226180572700094E-1
-1.9446312795778756E-2 -1.3447579008462784E-1
8.332711162403587E-1 -3.522321120459259E-1
7.74392517286237E-1 -4.229088369328715E-1
7.103764057220326E-1 -4.857744703444572E-1
6.421337557365202E-1 -5.405587118753601E-1
5.705748963739075E-1 -5.870881301924312E-1
4.9660030136809885E-1 -6.252830610998649E-1
4.2109178877520126E-1 -6.551538420179018E-1
3.449043043839686E-1 -6.767963382082898E-1
2.6885837233189075E-1 -6.90386810943332E-1
1.9373326638855703E-1 -6.961762039468706E-1
1.2026093984625551E-1 -6.944839329381535E-1
4.91207406210586E-2 -6.856912660184806E-1
-1.9065071764317022E-2 -6.702343832657224E-1
-8.373499983658098E-2 -6.485972032246501E-1
-1.443911738115043E-1 -6.213040619841115E-1
-2.00601418804254E-1 -5.889123280617659E-1
-2.520005410257982E-1 -5.520050328388547E-1
-2.9829085754203116E-1 -5.111835922902705E-1
-3.3924200090788237E-1 -4.670606910255864E-1
-3.7469003588078575E-1 -4.202533946678252E-1
-4.045359307954281E-1 -3.7137655086469373E-1
-4.2874343076467764E-1 -3.2103653337372E-1
-4.473363838269396E-1 -2.698253774627823E-1
-4.603955743081696E-1 -2.1831534841764155E-1
-4.680551201620221E-1 -1.6705397850404166E-1
-4.704984928364164E-1 -1.1655960104061465E-1
-4.679542192281846E-1 -6.731740379656743E-2
-4.606913257616946E-1 -1.977601736803553E-2
-4.490145843448827E-1 2.5655352026330413E-2
-4.332596191223926E-1 6.860924208073428E-2
-4.137879315104405E-1 1.0876170884224001E-1
-3.9098189905973485E-1 1.4583356410379755E-1
-3.6523980129470734E-1 1.795910890772096E-1
-3.369709227650418E-1 2.0984624235380323E-1
-3.065907803168665E-1 2.3645638461800983E-1
-2.745165180073595E-1 2.593235464293038E-1
-2.411625092864047E-1 2.7839326894327493E-1
-2.0693620191223014E-1 2.936530503092287E-1
-1.7223423687843709E-1 3.0513043306104504E-1
-1.374388682253262E-1 3.128907697704693E-1
-1.0291470621314941E-1 3.1703470581175164E-1
-6.900580186256769E-2 3.176954190916347E-1
-3.6033086471845346E-2 3.150356571672787E-1
-4.292175323637022E-3 3.0924461236364004E-1
2.594845938585837E-2 3.005346751523016E-1
5.444894544459174E-2 2.8913810535343254E-1
8.09991002865907E-2 2.75303659681034E-1
1.0541916005870858E-1 2.592932127212891E-1
1.2756015811915894E-1 2.4137840667055194E-1
1.4730396609569935E-1 2.2183736317376668E-1
1.6456301359039555E-1 2.0095148828377266E-1
1.7927970508179417E-1 1.790023991319357E-1
1.9142555486696874E-1 1.5626899820587237E-1
2.0100006275486787E-1 1.3302471837929336E-1
2.080293548089048E-1 1.0953495889526689E-1
2.1256461470294682E-1 8.605472954474437E-2
2.146803321411E-1 6.282651733120252E-2
2.1447239543437555E-1 4.0078386822857734E-2
2.1205605558597967E-1 1.8022322476892068E-2
2.07563789238541E-1 -3.1471816797702386E-3
2.0114308753288535E-1 -2.3254282546331655E-2
1.9295419738493197E-1 -4.2142698739692695E-2
1.8316784085323137E-1 -5.9676374508230386E-2
1.7196293719137104E-1 -7.573990193431382E-2
1.595243509860514E-1 -9.023870896243023E-2
1.4604068826842992E-1 -1.0309902278386433E-1
1.317021608600581E-1 -1.1426762003068863E-1
1.1669853738942636E-1 -1.237113769807745E-1
1.0121719746846329E-1 -1.314166345358884E-1
8.544130321376359E-2 -1.373883939765564E-1
6.954809992590993E-2 -1.4164936095646274E-1
5.3707354788198707E-2 -1.4423885625426405E-1
3.807993879267509E-2 -1.452116128432255E-1
2.281655279591782E-2 -1.446364785830831E-1
8.056596271142486E-3 -1.4259503519330494E-1
-6.072795713413766E-3 -1.3918007999582327E-1
8.861096223663487E-1 -2.741143975303277E-1
-1.9457207903684253E-2 -1.3449340949935482E-1
8.861742451411515E-1 -2.7407861110482873E-1
8.333281256621824E-1 -3.522117977639291E-1
7.744441854853412E-1 -4.2289952016265314E-1
7.104233240787557E-1 -4.8577372542509967E-1
6.421760000697475E-1 -5.40564862921246E-1
5.706123961914311E-1 -5.870998406186488E-1
4.966329788973311E-1 -6.25299179389569E-1
4.211196151640651E-1 -6.551733384332581E-1
3.449273212501798E-1 -6.768182782500705E-1
2.688766971286378E-1 -6.904103448175722E-1
1.93747089601911E-1 -6.962005631492738E-1
1.2027051787252137E-1 -6.945084297884747E-1
4.912638634691437E-2 -6.85715294094021E-1
-1.9062999499109046E-2 -6.702574177061363E-1
-8.373610716917705E-2 -6.486188003875926E-1
-1.4439504271350567E-1 -6.213238581684426E-1
-2.0060761752078285E-1 -5.889300372662103E-1
-2.5200863386372163E-1 -5.520204435336855E-1
-2.9830041383336137E-1 -5.111965632929402E-1
-3.3925260302868077E-1 -4.670711465744657E-1
-3.7470128624011007E-1 -4.202613188401427E-1
-4.0454745775151935E-1 -3.713819814632414E-1
-4.2875489344115214E-1 -3.210395554381556E-1
-4.4734747584774576E-1 -2.698261165389532E-1
-4.6040602646720713E-1 -2.1831396373929324E-1
-4.6806470207999956E-1 -1.6705065619858483E-1
-4.705070136685727E-1 -1.1655454749459028E-1
-4.679615274945209E-1 -6.731083928690049E-2
-4.6069730839008E-1 -1.9768170047223664E-2
-4.4901916501654476E-1 2.5664251705408245E-2
-4.332627560230512E-1 6.861896642664228E-2
-4.137896145865448E-1 1.0877203743273517E-1
-3.909821468836179E-1 1.4584428769313695E-1
-3.652386576385449E-1 1.796020128838596E-1
-3.3696845298695444E-1 2.0985718871666345E-1
-3.065870676438325E-1 2.3646719501551128E-1
-2.745116598078604E-1 2.5933408289082344E-1
-2.4115661341984557E-1 2.784034148681285E-1
-2.069293832115125E-1 2.936627107210873E-1
-1.722266138449972E-1 3.0513953435382435E-1
-1.3743055997912526E-1 3.1289925898155185E-1
-1.0290582974489408E-1 3.170425494724796E-1
-6.899646963029017E-2 3.177026017391011E-1
-3.602340435098435E-2 3.150421795397608E-1
-4.282240945965823E-3 3.0925048937669813E-1
2.5958557916995292E-2 3.0053993368852167E-1
5.445913044956109E-2 2.8914278195122606E-1
8.100930503417848E-2 2.753077981596496E-1
1.0542932893030407E-1 2.5929686182616285E-1
1.2757024644138118E-1 2.4138161775392908E-1
1.473139396636068E-1 2.2184018799883884E-1
1.6457284791400262E-1 2.0095397696205633E-1
1.792893843961756E-1 1.7900459825136988E-1
1.9143507094043558E-1 1.5627094917076453E-1
2.0100941353402466E-1 1.3302645598872617E-1
2.0803854294112445E-1 1.0953651017594554E-1
2.1257364597451525E-1 8.605611285359158E-2
2.146892138642863E-1 6.282774171840283E-2
2.1448113481502212E-1 4.0079451664418675E-2
2.120646581086126E-1 1.8023217346013747E-2
2.0757225707226876E-1 -3.1464769052125126E-3
2.0115141798640057E-1 -2.325379739186515E-2
1.9296238139985783E-1 -4.2142471690566556E-2
1.831758615145807E-1 -5.9676452478061505E-2
1.7197076821426102E-1 -7.574033973091548E-2
1.595319551038023E-1 -9.023956886440455E-2
1.4604801537678663E-1 -1.0310037438393721E-1
1.3170914568777398E-1 -1.1426954061735187E-1
1.16705096308152E-1 -1.2371395285567256E-1
1.0122322375092392E-1 -1.3141996393719893E-1
8.544665950011744E-2 -1.3739259287469413E-1
6.955260550477417E-2 -1.416545740648367E-1
5.371076282666266E-2 -1.4424527813970842E-1
3.808189274618546E-2 -1.4521952990752188E-1
2.2816496004884227E-2 -1.4464635794226938E-1
8.0535651339113E-3 -1.4260772934355537E-1
-6.080700364250892E-3 -1.3919733880794896E-1
9.321006106739388E-1 -1.8896851604018525E-1
-1.9474184080757864E-2 -1.3451898440374221E-1
9.321584278626623E-1 -1.889290754715729E-1
8.862253287607371E-1 -2.7405517964786413E-1
8.33375383087827E-1 -3.5219911061978204E-1
7.744880373569957E-1 -4.228952567150401E-1
7.104636164167233E-1 -4.8577637689058284E-1
6.422124571042305E-1 -5.405732275579666E-1
5.706447646149472E-1 -5.87112863857846E-1
4.966610792591661E-1 -6.253158968738265E-1
4.211433587255248E-1 -6.551928560996925E-1
3.4494671195676807E-1 -6.768397670993133E-1
2.688918264926459E-1 -6.904330416087293E-1
1.937581279772781E-1 -6.962237731911702E-1
1.2027770388087812E-1 -6.945315300070906E-1
4.913001544817123E-2 -6.857377355475677E-1
-1.9062586707970647E-2 -6.702787270976921E-1
-8.373853650106541E-2 -6.486385804107672E-1
-1.4439991749439923E-1 -6.213417866683246E-1
-2.0061452905288898E-1 -5.889458652232703E-1
-2.520171710618625E-1 -5.520339920008885E-1
-2.983101719366485E-1 -5.112077193748115E-1
-3.3926319129402605E-1 -4.6707985860639406E-1
-3.7471233456782244E-1 -4.202675909061122E-1
-4.045586222156207E-1 -3.7138586741368596E-1
-4.287658607224575E-1 -3.2104115254805626E-1
-4.4735796658623433E-1 -2.698255589701277E-1
-4.60415797581671E-1 -2.1831141592218192E-1
-4.6807354809557533E-1 -1.6704630628232028E-1
-4.7051476713577267E-1 -1.1654860097325842E-1
-4.679680585688083E-1 -6.730351291343954E-2
-4.607025236640482E-1 -1.9759686116882693E-2
-4.490230057039398E-1 2.5673670611720715E-2
-4.332651955928843E-1 6.862910219797334E-2
-4.137906559416264E-1 1.0878268060456125E-1
-3.9098181919607833E-1 1.4585524104565487E-1
-3.6523701293475885E-1 1.7961309441433482E-1
-3.3696556257814986E-1 2.0986823399369306E-1
-3.065830184932169E-1 2.364780589197709E-1
-2.7450655091597914E-1 2.593446407540541E-1
-2.411505523096342E-1 2.7841356304369186E-1
-2.0692248258012272E-1 2.9367236662238955E-1
-1.722189884274999E-1 3.051486359845021E-1
-1.3742232370060203E-1 3.129077640448148E-1
-1.0289709317387692E-1 3.1705043407608724E-1
-6.898733778445429E-2 3.1770985877658503E-1
-3.601397486064421E-2 3.150488168031813E-1
-4.272602595844576E-3 3.0925652745401594E-1
2.5968326259272884E-2 3.0054540372347943E-1
5.446896053490473E-2 2.891477233128349E-1
8.101913956413165E-2 2.753122560834837E-1
1.0543912155416209E-1 2.5930088507632304E-1
1.2757996141984904E-1 2.4138525637742442E-1
1.4732355124904617E-1 2.2184349118195948E-1
1.6458233946768688E-1 2.0095699106988865E-1
1.79298747289199E-1 1.7900736504857234E-1
1.9144430326600947E-1 1.5627350428327763E-1
2.010185186788896E-1 1.3302882759956636E-1
2.080475280530892E-1 1.0953871799181644E-1
2.1258252035826192E-1 8.605816733876097E-2
2.1469798734875403E-1 6.282964359113237E-2
2.1448981611677E-1 4.008119165043599E-2
2.1207325322043363E-1 1.8024776183730405E-2
2.0758076769393052E-1 -3.1451282623990735E-3
2.0115984000083273E-1 -2.3252697380839574E-2
1.9297070340348485E-1 -4.214166763883209E-2
1.831840633542405E-1 -5.967600004038118E-2
1.7197881949597976E-1 -7.574030237912757E-2
1.5953981357111224E-1 -9.024001755300202E-2
1.4605562500117258E-1 -1.0310138762092728E-1
1.3171643418316265E-1 -1.1427120523627407E-1
1.1671197160990765E-1 -1.2371636605915659E-1
1.0122956858024373E-1 -1.314232375303091E-1
8.545232239427412E-2 -1.3739686151210173E-1
6.955738501955205E-2 -1.416600111645995E-1
5.37143776735132E-2 -1.4425212754608077E-1
3.808392031338931E-2 -1.4522817327811635E-1
2.2816230521397477E-2 -1.4465747385257036E-1
8.049633658572827E-3 -1.4262273271457115E-1
-6.09166232689781E-3 -1.3921992528337232E-1
9.703283076951158E-1 -9.738299937153716E-2
-1.9504438555011824E-2 -1.345633404790431E-1
9.703714041051646E-1 -9.734787750688804E-2
9.321999125718291E-1 -1.8890580220254571E-1
8.862659462658898E-1 -2.740407952346238E-1
8.334146102486163E-1 -3.521922621116572E-1
7.745251984484922E-1 -4.2289493539226075E-1
7.104980974032673E-1 -4.8578167300314773E-1
6.422437600195726E-1 -5.405832690691847E-1
5.706725195038483E-1 -5.871268037919417E-1
4.966850417534891E-1 -6.253329159823545E-1
4.211634018342776E-1 -6.552121704379155E-1
3.449628152105201E-1 -6.768606366519079E-1
2.6890406380387566E-1 -6.904547784202005E-1
1.937666549136815E-1 -6.962457482894681E-1
1.2028274475869762E-1 -6.945531788445806E-1
4.9131850553909895E-2 -6.857585618510457E-1
-1.906363352510212E-2 -6.702983051830723E-1
-8.37421097084237E-2 -6.486565559532006E-1
-1.4440564104066417E-1 -6.213578761048114E-1
-2.0062201670563468E-1 -5.889598538795864E-1
-2.5202603581209904E-1 -5.520457311072462E-1
-2.9832003439280774E-1 -5.112171221079141E-1
-3.3927368700684146E-1 -4.670868953491909E-1
-3.7472312026713206E-1 -4.2027228385551507E-1
-4.0456938093808903E-1 -3.713882847161381E-1
-4.2877630585374066E-1 -3.2104140211057924E-1
-4.473678448381099E-1 -2.6982378209985847E-1
-4.6042489095818173E-1 -2.183077809260863E-1
-4.6808167490984964E-1 -1.6704100214972037E-1
-4.7052178214547735E-1 -1.1654183127289944E-1
-4.6797385232503397E-1 -6.729548998364525E-2
-4.607070211479152E-1 -1.975062565334586E-2
-4.4902616436633486E-1 2.5683554510659047E-2
-4.3326700288504444E-1 6.863960146281377E-2
-4.13791126439368E-1 1.0879359706935042E-1
-3.9098099141442894E-1 1.4586638972124819E-1
-3.652349459406709E-1 1.7962430616684147E-1
-3.369623324804393E-1 2.0987935760175125E-1
-3.065787149009892E-1 2.3648896254164894E-1
-2.7450127345053155E-1 2.593552128083373E-1
-2.4114440723105163E-1 2.784237125423853E-1
-2.0691557960556886E-1 2.936820229873734E-1
-1.7221143778684936E-1 3.051577484058461E-1
-1.3741423347335435E-1 3.129163004018123E-1
-1.0288856695588144E-1 3.170583795242449E-1
-6.897847269218148E-2 3.1771721400417247E-1
-3.600485991231603E-2 3.1505559607034267E-1
-4.263317455013086E-3 3.0926275642695084E-1
2.5977712153497326E-2 3.0055111721091965E-1
5.4478388477743424E-2 2.891529629137406E-1
8.10285617366398E-2 2.753170678618386E-1
1.0544850084905967E-1 2.5930531725314926E-1
1.2758927095671738E-1 2.413893571440403E-1
1.4733277360976094E-1 2.2184730663700816E-1
1.645914656973591E-1 2.0096056335030144E-1
1.7930777569307885E-1 1.790107306603549E-1
1.9145323803936812E-1 1.5627669267263392E-1
2.0102736841002433E-1 1.330318599814435E-1
2.0805630414394793E-1 1.0954160644945522E-1
2.1259123539443778E-1 8.606091418132665E-2
2.1470665344753903E-1 6.283224099420498E-2
2.1449844330262802E-1 4.008362153122659E-2
2.1208184782703426E-1 1.802701032895049E-2
2.0758933083145054E-1 -3.1431278865904112E-3
2.01168366081174E-1 -2.3250978150169768E-2
1.9297917871448866E-1 -4.214028570077428E-2
1.8319246466095843E-1 -5.967501972369056E-2
1.7198711261090974E-1 -7.573979570796505E-2
1.5954795178389566E-1 -9.024006400729283E-2
1.4606354719752065E-1 -1.0310207440526496E-1
1.3172406235150685E-1 -1.1427262844746729E-1
1.1671920720969393E-1 -1.2371863341119584E-1
1.0123628679416533E-1 -1.3142647385821027E-1
8.54583623734896E-2 -1.3740121941153166E-1
6.956253216332883E-2 -1.4166569178660784E-1
5.371832874075796E-2 -1.4425942325809982E-1
3.808620733864014E-2 -1.452375632830441E-1
2.2816029130878504E-2 -1.4466987061738454E-1
8.045160836095393E-3 -1.4264027403585083E-1
-6.105925596478944E-3 -1.392497332482438E-1
1.0000000000008875 4.836242034107893E-12
-1.9571060484613323E-2 -1.346646731398096E-1
1.0000000000008875 4.836242034107893E-12
9.703969751018515E-1 -9.733109977652658E-2
9.322308728999307E-1 -1.8889237184701882E-1
8.862986623617591E-1 -2.740327398042521E-1
8.334472918655774E-1 -3.521897435087784E-1
7.745566673016012E-1 -4.2289759915928726E-1
7.105275065194936E-1 -4.857889567232923E-1
6.422704938836227E-1 -5.405945139871359E-1
5.70696145806088E-1 -5.871413094628263E-1
4.9670528172677014E-1 -6.253499731714147E-1
4.2118010836233183E-1 -6.552310836372359E-1
3.449759545878655E-1 -6.76880740597037E-1
2.6891369941418053E-1 -6.904754505655416E-1
1.9377293206922364E-1 -6.962664181657039E-1
1.2028587641543001E-1 -6.945733348974427E-1
4.913210377084654E-2 -6.857777560707496E-1
-1.9065950353047794E-2 -6.703161558022771E-1
-8.374665879184519E-2 -6.486727484593826E-1
-1.4441206626506733E-1 -6.213721627191637E-1
-2.0062995372933526E-1 -5.889720517381215E-1
-2.5203512115313986E-1 -5.520557192965808E-1
-2.983299134524084E-1 -5.11224837746972E-1
-3.392840209932697E-1 -4.6709232889161867E-1
-3.7473359201763046E-1 -4.20275473785691E-1
-4.045796996399108E-1 -3.7138931179200446E-1
-4.287862106846468E-1 -3.210403833337055E-1
-4.4737710757666826E-1 -2.6982086452547016E-1
-4.604333176039573E-1 -2.1830313548095878E-1
-4.6808910639808904E-1 -1.6703481755469432E-1
-4.705280942195858E-1 -1.165343082018081E-1
-4.679789546606522E-1 -6.728683553742239E-2
-4.60710855820023E-1 -1.974104824509188E-2
-4.4902870375638276E-1 2.5693849809113586E-2
-4.3326824712604156E-1 6.865041703442418E-2
-4.137911004994042E-1 1.088047463234645E-1
-3.909797419133065E-1 1.458777000647847E-1
-3.65232537795692E-1 1.7963562137837677E-1
-3.369588454697628E-1 2.0989053961083975E-1
-3.0657424022566593E-1 2.364998926250805E-1
-2.7449591037512694E-1 2.593657922237074E-1
-2.4113825987007945E-1 2.784338626391059E-1
-2.0690875390353855E-1 2.936916848087268E-1
-1.72204038766624E-1 3.051668818695045E-1
-1.374063627691715E-1 3.1292488307582095E-1
-1.0288032068142516E-1 3.1706640507360667E-1
-6.896993965510645E-2 3.177246903586889E-1
-3.599612019324032E-2 3.1506254337501455E-1
-4.254441361168161E-3 3.0926920484230036E-1
2.598666476962803E-2 3.0055710461239976E-1
5.448736853596726E-2 2.8915853255612367E-1
8.103753091560684E-2 2.7532226605840404E-1
1.0545743124071554E-1 2.593101911375143E-1
1.275981444395077E-1 2.4139395252738374E-1
1.473415809557468E-1 2.2185166604209658E-1
1.646002054618466E-1 2.0096472422623746E-1
1.7931645291359136E-1 1.7901472383697725E-1
1.914618627904909E-1 1.5628054104635122E-1
2.0103595425446996E-1 1.3303557747285757E-1
2.0806486650935266E-1 1.0954519723619233E-1
2.125997899257958E-1 8.606437219373055E-2
2.1471521435804117E-1 6.283554967985248E-2
2.1450702175947226E-1 4.0086753876067194E-2
2.1209045039514787E-1 1.802992908757709E-2
2.0759795798298034E-1 -3.1404697553440966E-3
2.0117701079452469E-1 -2.3248636924409864E-2
1.929878251319483E-1 -4.213832625273462E-2
1.8320108679197636E-1 -5.967351489532536E-2
1.7199567302386498E-1 -7.573882581683766E-2
1.5955640018944436E-1 -9.023971668056577E-2
1.4607181875366568E-1 -1.031024449845911E-1
1.3173207542265788E-1 -1.1427382142745988E-1
1.1672686008021796E-1 -1.2372076563033203E-1
1.0124345245133883E-1 -1.314296808033409E-1
8.546487964149174E-2 -1.374056672773678E-1
6.956818960370116E-2 -1.416716008844259E-1
5.3722833118324535E-2 -1.442671159639507E-1
3.80891154483849E-2 -1.452475715505438E-1
2.281657847023094E-2 -1.4468321404642182E-1
8.041750397912046E-3 -1.426593607528484E-1
-6.118011447353777E-3 -1.3928269920875097E-1
1.0000000000008875 4.836242034107893E-12
9.704143787458396E-1 -9.732240621399502E-2
9.322548549053237E-1 -1.888849728887719E-1
8.863253547867602E-1 -2.740290627377464E-1
8.334746196317959E-1 -3.5219037720352214E-1
7.745832917313503E-1 -4.229024644665992E-1
7.105524956557512E-1 -4.857976743759728E-1
6.422931880816696E-1 -5.406065564586943E-1
5.707160903933575E-1 -5.871560774390361E-1
4.9672218676175806E-1 -6.253668402499456E-1
4.211938207061656E-1 -6.552494253817527E-1
3.4498643612254365E-1 -6.768999547599933E-1
2.6892100862520063E-1 -6.904949716464329E-1
1.9377720766279993E-1 -6.962857279569233E-1
1.2028732235583155E-1 -6.9459196992996E-1
4.913097545950707E-2 -6.857953125825546E-1
-1.90693588981095E-2 -6.703322925557491E-1
-8.375202675444474E-2 -6.486871877785262E-1
-1.4441905684510406E-1 -6.213846899607803E-1
-2.0063822391937738E-1 -5.889825134380727E-1
-2.5204433043992275E-1 -5.520640201814355E-1
-2.9833973142332787E-1 -5.112309368288482E-1
-3.3929413383547496E-1 -4.6709623480179724E-1
-3.747437079064841E-1 -4.2027723954393215E-1
-4.0458955304554967E-1 -3.71389029163715E-1
-4.2879556561620236E-1 -3.210381769428695E-1
-4.4738575982378687E-1 -2.698168858515002E-1
-4.6044109603084554E-1 -2.182975568823277E-1
-4.680958733584004E-1 -1.6702782644420586E-1
-4.705337451879049E-1 -1.1652610145936972E-1
-4.679834171494916E-1 -6.72776142682985E-2
-4.607140876901296E-1 -1.973101295553811E-2
-4.4903069101005755E-1 2.5704503554029028E-2
-4.33269001285575E-1 6.86615024319471E-2
-4.1379065566007045E-1 1.0881608858689067E-1
-3.909781515779601E-1 1.4588913910672555E-1
-3.652298715706742E-1 1.7964701389418342E-1
-3.3695518571007776E-1 2.099017605851996E-1
-3.0656967871078616E-1 2.3651083626596142E-1
-2.744905450844624E-1 2.593763723600795E-1
-2.4113219192787147E-1 2.784440126064673E-1
-2.0690208474148034E-1 2.937013568735865E-1
-1.7219686754889255E-1 3.0517604621685485E-1
-1.3739878413234913E-1 3.129335264606304E-1
-1.0287242279702376E-1 3.1707452913769807E-1
-6.896180265291914E-2 3.1773230971363137E-1
-3.598781493742694E-2 3.150696834791487E-1
-4.24602860273977E-3 3.0927589977232395E-1
2.5995134885600974E-2 3.0056339473283744E-1
5.4495856608286146E-2 2.891644622081338E-1
8.104600810509217E-2 2.7532788126079505E-1
1.0546587877628508E-1 2.593155374003804E-1
1.2760655284711636E-1 2.4139907278040124E-1
1.4734994904747373E-1 2.2185659875814998E-1
1.6460853911951143E-1 2.0096950174368297E-1
1.7932476370663492E-1 1.7901937091463224E-1
1.9147016646140622E-1 1.5628507368201072E-1
2.0104426912101012E-1 1.330400019968448E-1
2.0807321181859642E-1 1.0954950966759178E-1
2.126081841903013E-1 8.60685578848462E-2
2.1472367372624526E-1 6.283958320858338E-2
2.145155584264692E-1 4.009059920271996E-2
2.1209907109883883E-1 1.8033539910755365E-2
2.0760666259407268E-1 -3.1371494583045216E-3
2.011857910024541E-1 -2.3245672230136717E-2
1.9299666323214984E-1 -4.21357905658202E-2
1.832099545564013E-1 -5.967148926643151E-2
1.7200453060805157E-1 -7.573739840794394E-2
1.595651950123958E-1 -9.023898257459799E-2
1.46080484243083E-1 -1.031025066005769E-1
1.3174052945008788E-1 -1.1427478993957617E-1
1.1673500281392503E-1 -1.2372276407850484E-1
1.012511632161553E-1 -1.31432850025456E-1
8.547201221923248E-2 -1.3741017669526132E-1
6.957456543020545E-2 -1.4167766778602875E-1
5.372823347396331E-2 -1.442750393719348E-1
3.8093285632447765E-2 -1.4525778566885283E-1
2.2819343578695292E-2 -1.4469630657830998E-1
8.044213934886475E-3 -1.4267509959390617E-1
1.0000000000008875 4.836242034107893E-12
9.704272681317816E-1 -9.731783132578968E-2
9.322739594994164E-1 -1.8888138704138302E-1
8.863473555881615E-1 -2.7402841595754096E-1
8.334975275535714E-1 -3.5219327186245414E-1
7.746057789608269E-1 -4.229089057380304E-1
7.105736316725028E-1 -4.85807369334497E-1
6.423123162842513E-1 -5.406190553299035E-1
5.707327610843909E-1 -5.871708502822385E-1
4.9673611538064827E-1 -6.253833234455226E-1
4.212048584274239E-1 -6.552670521961971E-1
3.449945469982668E-1 -6.769181765763521E-1
2.689262504785592E-1 -6.905132730905004E-1
1.9377971534906918E-1 -6.963036377405037E-1
1.2028729266916763E-1 -6.946090683909562E-1
4.912865335341376E-2 -6.858112366046496E-1
-1.907369293229299E-2 -6.703467383266791E-1
-8.375806823006154E-2 -6.486999117024266E-1
-1.4442648773129108E-1 -6.21395508035332E-1
-2.006467220137961E-1 -5.889912993114149E-1
-2.52053577636281E-1 -5.520707021152274E-1
-2.9834942086718974E-1 -5.112354937722616E-1
-3.393039759750836E-1 -4.670986917555124E-1
-3.7475343544410966E-1 -4.202776623922799E-1
-4.0459892481934906E-1 -3.713875191498826E-1
-4.2880436945966677E-1 -3.210348649180888E-1
-4.4739381444177073E-1 -2.698119264658635E-1
-4.604482519796426E-1 -2.1829112281699442E-1
-4.681020131844379E-1 -1.6702010282596538E-1
-4.705387828209835E-1 -1.1651728053924777E-1
-4.6798729663698324E-1 -6.726789046463744E-2
-4.6071678136765276E-1 -1.9720578308527793E-2
-4.4903219719581916E-1 2.5715463415284617E-2
-4.3326934160881897E-1 6.867281181902389E-2
-4.137898721030098E-1 1.0882758470489688E-1
-3.909763033361486E-1 1.459006744445101E-1
-3.6522703181131494E-1 1.7965845803010014E-1
-3.369514383117068E-1 2.0991300142842473E-1
-3.065651150580933E-1 2.365217807402194E-1
-2.7448526099293225E-1 2.5938694657626216E-1
-2.4112628474156153E-1 2.784541615284418E-1
-2.068956506819307E-1 2.9371104356663885E-1
-1.7218999932599097E-1 3.051852506780356E-1
-1.3739156887823165E-1 3.1294224412471894E-1
-1.0286494033149646E-1 3.170827690937098E-1
-6.895412410161532E-2 3.177400926983381E-1
-3.598000170977716E-2 3.1507703970633505E-1
-4.238131732226833E-3 3.092828666631984E-1
2.6003075047312654E-2 3.0057001458637467E-1
5.4503810365158466E-2 2.891707798936481E-1
8.105395606769407E-2 2.75333941973142E-1
1.054738112255972E-1 2.5932138451268416E-1
1.2761446883110097E-1 2.4140474586759958E-1
1.4735785526234008E-1 2.21862131796131E-1
1.6461644859460134E-1 2.0097492154728686E-1
1.7933269434257185E-1 1.7902469581070618E-1
1.9147813946501616E-1 1.5629031245225766E-1
2.0105230736580323E-1 1.3304515310650852E-1
2.080813381812377E-1 1.0955456076312522E-1
2.126164198945058E-1 8.60734855680681E-2
2.1473203673078758E-1 6.284435308567789E-2
2.1452406189300036E-1 4.009516615716666E-2
2.121077219526988E-1 1.8037848603919184E-2
2.0761546021650662E-1 -3.133163927740139E-3
2.0119472605379757E-1 -2.3242083547240874E-2
1.9300571662027707E-1 -4.21326803642166E-2
1.8321909654970037E-1 -5.966894632894626E-2
1.7201372009343335E-1 -7.573551802860928E-2
1.595743788807174E-1 -9.023786620005814E-2
1.46089596929057E-1 -1.0310226198795965E-1
1.3174949268301128E-1 -1.1427553206757003E-1
1.1674372581806847E-1 -1.2372461714276918E-1
1.0125954410149496E-1 -1.3143595077801054E-1
8.547994284651315E-2 -1.3741467869486343E-1
6.958194712952086E-2 -1.416837427671217E-1
5.373503004150034E-2 -1.4428285561859894E-1
3.8099724652245544E-2 -1.4526735728915846E-1
2.282686459883076E-2 -1.4470653819051663E-1
1.0000000000008875 4.836242034107893E-12
9.704373039453414E-1 -9.731560124744121E-2
9.32289474125621E-1 -1.8888028783581653E-1
8.863656164044459E-1 -2.7402986799528706E-1
8.335167470710957E-1 -3.521977585186322E-1
7.746247168486522E-1 -4.22916429207032E-1
7.10591405193966E-1 -4.858176698415784E-1
6.423283000831312E-1 -5.406317278558705E-1
5.707465279625452E-1 -5.871854129986277E-1
4.9674739725846656E-1 -6.253992612161682E-1
4.2121351792389145E-1 -6.552838459573468E-1
3.450005549584753E-1 -6.769353239783182E-1
2.689296670779979E-1 -6.905303032599396E-1
1.9378067355121367E-1 -6.963201218021247E-1
1.2028598338840245E-1 -6.946246267456773E-1
4.9125311977949726E-2 -6.858255435805135E-1
-1.9078798803722822E-2 -6.703595246998951E-1
-8.376464991827648E-2 -6.487109654105749E-1
-1.444342454940854E-1 -6.214046733813704E-1
-2.0065535394849016E-1 -5.889984748990869E-1
-2.5206278747732824E-1 -5.520758377390437E-1
-2.9835892466935704E-1 -5.112385864613873E-1
-3.3931350769849156E-1 -4.6709978115761425E-1
-3.7476275146585214E-1 -4.2027682567128627E-1
-4.0460780739461627E-1 -3.713848655726934E-1
-4.288126291977112E-1 -3.210305302489831E-1
-4.4740129183719524E-1 -2.698060673419132E-1
-4.6045481807968885E-1 -2.1828391120061413E-1
-4.6810756947417E-1 -1.6701172065689052E-1
-4.705432604011471E-1 -1.1650791467118962E-1
-4.679906547843667E-1 -6.725772798910053E-2
-4.607190055823879E-1 -1.9709802304929237E-2
-4.490332968227382E-1 2.572667763459502E-2
-4.3326934712211496E-1 6.868429993029854E-2
-4.137888321572976E-1 1.0883919604433041E-1
-3.9097428166429743E-1 1.4591227411081006E-1
-3.652241040554879E-1 1.7966992841920085E-1
-3.3694768886689686E-1 2.0992424321693842E-1
-3.065606339925785E-1 2.3653271333034026E-1
-2.744801411219706E-1 2.593975080449094E-1
-2.4112061889694264E-1 2.784643081045702E-1
-2.0688952922964957E-1 2.937207486862925E-1
-1.7218350797502485E-1 3.051945036799733E-1
-1.3738478680065716E-1 3.129510486234447E-1
-1.028579386303897E-1 3.170911410988799E-1
-6.894696462003858E-2 3.1774805852972204E-1
-3.597273620305379E-2 3.150846337826753E-1
-4.230801390935233E-3 3.092901291947163E-1
2.6010439726218252E-2 3.0057698925898796E-1
5.4511189387232026E-2 2.8917751157638094E-1
8.106133943980172E-2 2.753404745210009E-1
1.0548119818096359E-1 2.5932775868071817E-1
1.2762186680838333E-1 2.4141099741199817E-1
1.4736527867681645E-1 2.2186828978122802E-1
1.6462391744165716E-1 2.009810068804929E-1
1.7934023266666008E-1 1.7903072004508022E-1
1.9148577374351886E-1 1.5629627686567574E-1
2.0106006484805553E-1 1.3305104805674084E-1
2.080892452128695E-1 1.0956036533403467E-1
2.1262450028285448E-1 8.607916748612911E-2
2.1474031017012638E-1 6.284986891021184E-2
2.1453254249537365E-1 4.0100461705007015E-2
2.1211641691469332E-1 1.8042859574793124E-2
2.0762436863813633E-1 -3.1285111432062494E-3
2.012038379442932E-1 -2.3237870947827276E-2
1.9301501211964217E-1 -4.2128997358781436E-2
1.8322854539242714E-1 -5.96658887578813E-2
1.7202328137360096E-1 -7.573318727965503E-2
1.5958400122837652E-1 -9.023636849433883E-2
1.460992193096657E-1 -1.0310170785791077E-1
1.3175904631791768E-1 -1.1427603599070157E-1
1.1675313835908517E-1 -1.2372629683782792E-1
1.012687488635236E-1 -1.3143892448664127E-1
8.548890050775283E-2 -1.3741905480138836E-1
6.959070134755238E-2 -1.4168958239039897E-1
5.374386672338255E-2 -1.4429003618963923E-1
3.810969463573449E-2 -1.4527503498222039E-1
1.0000000000008875 4.836242034107893E-12
9.70445353009912E-1 -9.731481173514805E-2
9.323022300412708E-1 -1.888808460310285E-1
8.863808327815418E-1 -2.7403276567581064E-1
8.335328569077154E-1 -3.522033340685418E-1
7.746405960241584E-1 -4.229246468440252E-1
7.106062411026682E-1 -4.8582827574384096E-1
6.423415141150548E-1 -5.406443423601629E-1
5.707577258368199E-1 -5.871995886499859E-1
4.967563343080854E-1 -6.254145214419793E-1
4.2122007278843826E-1 -6.552997119723539E-1
3.450047082759379E-1 -6.769513339951985E-1
2.689314833366332E-1 -6.905460263411466E-1
1.9378028510671472E-1 -6.963351677082451E-1
1.2028357611953719E-1 -6.946386526902235E-1
4.912111229635029E-2 -6.858382584764987E-1
-1.908453573758268E-2 -6.703706913337505E-1
-8.377165082423639E-2 -6.487204008922383E-1
-1.444422284912423E-1 -6.214122481371495E-1
-2.006640369507956E-1 -5.890041104601251E-1
-2.520718954890247E-1 -5.520795035411143E-1
-2.983681959846628E-1 -5.112402958491166E-1
-3.3932269901205403E-1 -4.670995867928645E-1
-3.747716419414135E-1 -4.2027481449620097E-1
-4.0461620171847434E-1 -3.713811535007543E-1
-4.288203596732316E-1 -3.2102525671850035E-1
-4.474082195893916E-1 -2.697993898722395E-1
-4.604608334318921E-1 -2.1827600005980782E-1
-4.681125915844906E-1 -1.6700275375655943E-1
-4.7054723624477507E-1 -1.1649807277057152E-1
-4.6799355756647343E-1 -6.724719027693118E-2
-4.607208326727059E-1 -1.9698742450637477E-2
-4.4903406731937057E-1 2.573809495837791E-2
-4.332690991135789E-1 6.86959219763999E-2
-4.137876197895385E-1 1.0885088437760099E-1
-3.909721720919618E-1 1.4592390643729553E-1
-3.652211743545959E-1 1.796813998558358E-1
-3.3694402298867354E-1 2.099354670262237E-1
-3.0655631982276965E-1 2.3654362114066685E-1
-2.7447526769722463E-1 2.5940804957501346E-1
-2.4111527385142567E-1 2.784744504620599E-1
-2.0688379648678254E-1 2.9373047525415436E-1
-1.7217746574537457E-1 3.052038126691123E-1
-1.3737850589380773E-1 3.1295995133056087E-1
-1.0285148111244558E-1 3.1709965993439426E-1
-6.894038281507621E-2 3.1775622486518396E-1
-3.596607205070525E-2 3.150924857003907E-1
-4.224086147868531E-3 3.092977091617515E-1
2.6017185449152245E-2 3.0058434181684573E-1
5.451795527131038E-2 2.891846810857771E-1
8.106812481834698E-2 2.753475030001578E-1
1.0548801112937292E-1 2.5933468380364927E-1
1.2762872301493336E-1 2.4141785068533392E-1
1.4737220011536548E-1 2.2187509495619956E-1
1.6463093089415715E-1 2.0098777860651076E-1
1.793473681404253E-1 1.7903746279189764E-1
1.9149306281278097E-1 1.5630298413971505E-1
2.0106753897342594E-1 1.3305770190188326E-1
2.0809693407840693E-1 1.095669361148063E-1
2.1263243018501826E-1 8.608561396461051E-2
2.147485025049929E-1 6.285613857490975E-2
2.1454101237444717E-1 4.0106491353561216E-2
2.121251719551833E-1 1.8048576097711422E-2
2.0763340795621113E-1 -3.123189805099339E-3
2.0121315139928697E-1 -2.3233034700617338E-2
1.9302457986382493E-1 -4.212474276536041E-2
1.8323833781667642E-1 -5.9662317798585926E-2
1.720332595792821E-1 -7.573040604965482E-2
1.595941183147221E-1 -9.02344858219627E-2
1.461094229994755E-1 -1.0310083358840282E-1
1.3176928403362004E-1 -1.1427627828209676E-1
1.1676336720769996E-1 -1.2372775671499205E-1
1.0127895622153947E-1 -1.3144168280421833E-1
8.549914936888826E-2 -1.3742313813029386E-1
6.96012379426068E-2 -1.4169486787972713E-1
5.375539314564961E-2 -1.4429597394507682E-1
1.0000000000008875 4.836242034107893E-12
9.704519229664129E-1 -9.731494990539105E-2
9.323127937352476E-1 -1.888825190582151E-1
8.863935275112893E-1 -2.74036641945619E-1
8.335463218581208E-1 -3.52209617695325E-1
7.746538291255959E-1 -4.2293325405139065E-1
7.106185085400696E-1 -4.858389462119407E-1
6.423522914109484E-1 -5.406567110267401E-1
5.707666571209155E-1 -5.872132338540457E-1
4.9676320218013603E-1 -6.254289984284847E-1
4.2122477452511664E-1 -6.553145768586975E-1
3.450072360341619E-1 -6.769661611741989E-1
2.689319070253219E-1 -6.905604211171521E-1
1.937787371847511E-1 -6.963487752906538E-1
1.2028023790117878E-1 -6.946511642835453E-1
4.911620155879158E-2 -6.858494150208292E-1
-1.909077596637633E-2 -6.703802852821715E-1
-8.377896234558724E-2 -6.487282763428327E-1
-1.4445034690082764E-1 -6.214182996004999E-1
-2.0067269950968925E-1 -5.890082804816719E-1
-2.520808478949638E-1 -5.520817794104133E-1
-2.9837719807686675E-1 -5.11240705562539E-1
-3.393315294137415E-1 -4.670981944812848E-1
-3.747801016854016E-1 -4.2027171545965825E-1
-4.0462411690384936E-1 -3.713764690045E-1
-4.28827583195157E-1 -3.210191287074851E-1
-4.4741463202274784E-1 -2.6979197571185526E-1
-4.604663431379781E-1 -2.1826746742469783E-1
-4.68117134125684E-1 -1.6699327575591014E-1
-4.705507731803843E-1 -1.1648782341887161E-1
-4.679960747339819E-1 -6.723634035067196E-2
-4.607223380376255E-1 -1.968745580726552E-2
-4.490345884852984E-1 2.574966456017209E-2
-4.3326868058506934E-1 6.870763353338029E-2
-4.137863200655811E-1 1.0886261174754085E-1
-3.909700606797056E-1 1.4593553990114824E-1
-3.6521832877549715E-1 1.7969284713226402E-1
-3.3694052584558315E-1 2.099466537623676E-1
-3.0655225600102703E-1 2.3655449091443112E-1
-2.744707217385677E-1 2.59418563420163E-1
-2.411103275623125E-1 2.7848458597649517E-1
-2.0687852681544722E-1 2.937402253374177E-1
-1.7217194296010377E-1 3.052131839427084E-1
-1.3737279208615633E-1 3.1296896228050525E-1
-1.0284562903757528E-1 3.1710833885964285E-1
-6.893443508080381E-2 3.177646076708896E-1
-3.596006065406346E-2 3.151006136046939E-1
-4.218032351585048E-3 3.0930562637295683E-1
2.602327092378E-2 3.005920932257999E-1
5.452407173925399E-2 2.8919231004816986E-1
8.107428085158075E-2 2.753550492330073E-1
1.0549422352882391E-1 2.593421814526513E-1
1.2763501557168885E-1 2.4142532660459354E-1
1.4737860220030924E-1 2.2188256721086755E-1
1.6463747590864616E-1 2.0099525525449025E-1
1.7935409188132137E-1 1.7904494094049897E-1
1.9150000179204213E-1 1.56310449292418E-1
2.0107472872694754E-1 1.330651276061569E-1
2.0810440752226184E-1 1.0957428390207542E-1
2.1264021604962619E-1 8.609283357566022E-2
2.1475662389418504E-1 6.286316845769886E-2
2.1454948549890104E-1 4.0113259395911816E-2
2.1213400507300476E-1 1.8055000595563406E-2
2.076426005818323E-1 -3.1171990023532038E-3
2.0122269384912603E-1 -2.3227574870082163E-2
1.930344532293161E-1 -4.211991683770417E-2
1.8324851451858237E-1 -5.965823271156193E-2
1.7204370477456596E-1 -7.572717085282904E-2
1.5960479262958255E-1 -9.023220924120197E-2
1.4612028754003492E-1 -1.0309962048564504E-1
1.3178030953698444E-1 -1.1427622349226846E-1
1.1677455128222401E-1 -1.2372893280439917E-1
1.012903572469221E-1 -1.3144411332233924E-1
8.551095602372238E-2 -1.374267357655008E-1
6.96139136562559E-2 -1.416992900226988E-1
1.0000000000008875 4.836242034107893E-12
9.704573395361993E-1 -9.731569979101529E-2
9.323215707569196E-1 -1.8888493724852776E-1
8.864041047568816E-1 -2.7404115632511733E-1
8.335575213661914E-1 -3.5221631902832456E-1
7.746647663899391E-1 -4.2294201181188684E-1
7.106285296729243E-1 -4.858494891962877E-1
6.423609284257541E-1 -5.406686833329E-1
5.707735947496316E-1 -5.872262344929777E-1
4.967682519530946E-1 -6.254426099632402E-1
4.2122785350147773E-1 -6.553283864208581E-1
3.4500834862683954E-1 -6.769797759574527E-1
2.689311290115961E-1 -6.905734796819084E-1
1.9377620138695006E-1 -6.963609555962518E-1
1.2027612123980079E-1 -6.946621890591471E-1
4.911071332200358E-2 -6.858590549401654E-1
-1.9097404703932553E-2 -6.703883603154301E-1
-8.378648821432477E-2 -6.487346555564076E-1
-1.4445852262441902E-1 -6.214228996834201E-1
-2.0068128122692308E-1 -5.890110632020583E-1
-2.520896014104057E-1 -5.520827482216408E-1
-2.9838590405920706E-1 -5.112399015408816E-1
-3.393399875800265E-1 -4.670956917682994E-1
-3.7478813399368927E-1 -4.2026761637063886E-1
-4.0463156981879544E-1 -3.7137089894229025E-1
-4.288343290740781E-1 -3.2101223103437E-1
-4.4742056969953653E-1 -2.6978390667258145E-1
-4.6047139777306906E-1 -2.1825839125563481E-1
-4.681212564108033E-1 -1.6698336005881667E-1
-4.7055393797756906E-1 -1.1647723487578035E-1
-4.67998279238592E-1 -6.722524085869039E-2
-4.6072359955995784E-1 -1.9675999065612314E-2
-4.490349419260542E-1 2.5761335946060265E-2
-4.332681757045797E-1 6.871939043113857E-2
-4.1378501862327427E-1 1.0887434034111856E-1
-3.909680335149956E-1 1.45947142982645E-1
-3.6521565291921837E-1 1.7970424488014958E-1
-3.369372817081667E-1 2.0995778399621592E-1
-3.0654852471043026E-1 2.3656530887734126E-1
-2.7446658267709206E-1 2.5942904111713205E-1
-2.411058561408074E-1 2.7849471111295576E-1
-2.0687379252668198E-1 2.9374999990131584E-1
-1.7216700773871094E-1 3.0522262250254084E-1
-1.3736770899568418E-1 3.129780900315796E-1
-1.0284044129273988E-1 3.1711718949028805E-1
-6.892917541874527E-2 3.177732211163238E-1
-3.595475103787636E-2 3.151090337141016E-1
-4.212684011204015E-3 3.093138985873993E-1
2.6028657137911707E-2 3.0060026230012027E-1
5.452950471429684E-2 2.892004178619713E-1
8.10797782993119E-2 2.7536313275723423E-1
1.0549981085067234E-1 2.5935027088809615E-1
1.2764072451830244E-1 2.4143344376199707E-1
1.4738446937883745E-1 2.2189072412914232E-1
1.6464354117848598E-1 2.01003453098857E-1
1.793603966764582E-1 1.7905316919613196E-1
1.9150658741762658E-1 1.5631868525869133E-1
2.0108163467905038E-1 1.3307333619043346E-1
2.0811166987174845E-1 1.0958241772035143E-1
2.1264786593674853E-1 8.610083334003125E-2
2.1476468618272282E-1 6.287096364355493E-2
2.1455797764185708E-1 4.0120769160962855E-2
2.1214293624530464E-1 1.8062134932912855E-2
2.0765197114926862E-1 -3.1105378855985277E-3
2.012324952735302E-1 -2.322149095244837E-2
1.9304466855974833E-1 -4.2114518450078346E-2
1.832591196917134E-1 -5.965363034679989E-2
1.7205467114201184E-1 -7.572347442466645E-2
1.5961609143669808E-1 -9.022952426751349E-2
1.4613189769754495E-1 -1.0309804209844733E-1
1.3179223128047207E-1 -1.1427582597017547E-1
1.1678683067404522E-1 -1.237297495933328E-1
1.0130313086063908E-1 -1.3144609725673925E-1
8.552453040748113E-2 -1.3742968097836425E-1
1.0000000000008875 4.836242034107893E-12
9.704618271424589E-1 -9.731685420710633E-2
9.323288640374562E-1 -1.8888784013436774E-1
8.864128851568052E-1 -2.740460563706253E-1
8.335667700939663E-1 -3.5222321524724604E-1
7.74673707813803E-1 -4.2295073278286505E-1
7.106365870022727E-1 -4.858597526912202E-1
6.423676894907094E-1 -5.406801403348976E-1
5.707787849029424E-1 -5.872385018003665E-1
4.967717118057755E-1 -6.254552945244682E-1
4.2122951998547503E-1 -6.553411035874891E-1
3.4500823840459544E-1 -6.769921630985102E-1
2.689293236603514E-1 -6.905852061669675E-1
1.937728340016727E-1 -6.963717298317812E-1
1.2027136428081814E-1 -6.946717631221105E-1
4.910476758939461E-2 -6.85867227175367E-1
-1.910432000162673E-2 -6.703949762408877E-1
-8.379414432767116E-2 -6.487396073329883E-1
-1.4446668907394744E-1 -6.214261243935498E-1
-2.0068973256076286E-1 -5.890125401490701E-1
-2.5209812293366457E-1 -5.520824954352321E-1
-2.9839429653483623E-1 -5.11237971693507E-1
-3.393480709572768E-1 -4.6709216763805267E-1
-3.747957501864054E-1 -4.202626060258448E-1
-4.0463858459257784E-1 -3.7136453078191456E-1
-4.2884063310597986E-1 -3.2100464881100743E-1
-4.474260788748304E-1 -2.6977526461911E-1
-4.60476052809585E-1 -2.1824884939487915E-1
-4.681250218667799E-1 -1.6697307982739812E-1
-4.7055680075012535E-1 -1.1646637509504766E-1
-4.6800024663187334E-1 -6.721395412734867E-2
-4.607246970079309E-1 -1.9664428626077285E-2
-4.4903521045766476E-1 2.5773058842360103E-2
-4.332676692249567E-1 6.873114861972013E-2
-4.1378380111026136E-1 1.0888603233406881E-1
-3.909661761820667E-1 1.45958684006864E-1
-3.6521323142833584E-1 1.7971556741098768E-1
-3.369343734889411E-1 2.0996883779489425E-1
-3.065452064401124E-1 2.365760605659642E-1
-2.744629279735476E-1 2.5943947332800255E-1
-2.4110193350512465E-1 2.7850482126600357E-1
-2.0686966357247466E-1 2.9375979865485335E-1
-1.7216272572624974E-1 3.052321319184424E-1
-1.3736331770033292E-1 3.129873415437273E-1
-1.0283597420098199E-1 3.171262216956979E-1
-6.892465527114726E-2 3.1778207748152937E-1
-3.5950189703758545E-2 3.151177602354172E-1
-4.20808268102449E-3 3.0932254145942184E-1
2.603330744918093E-2 3.00608865669953E-1
5.453422239093984E-2 2.892090216857879E-1
8.10845900906331E-2 2.7537177082957087E-1
1.0550475062635734E-1 2.593589690768428E-1
1.276458318435629E-1 2.4144221847498326E-1
1.4738978794749324E-1 2.2189958105644483E-1
1.646491171542751E-1 2.0101238624084627E-1
1.7936627698641464E-1 1.790621601905085E-1
1.91512818039077E-1 1.563277030254404E-1
2.0108825897442675E-1 1.330823368862028E-1
2.0811872701583387E-1 1.095913450006086E-1
2.1265538948407103E-1 8.610961892401488E-2
2.1477270283982547E-1 6.287952815901741E-2
2.145665062886583E-1 4.012902326487177E-2
2.1215198728833567E-1 1.806998068967574E-2
2.0766154629630257E-1 -3.1032053630166E-3
2.0124258786029453E-1 -2.3214781565795053E-2
1.9305526462710287E-1 -4.2108544808816616E-2
1.8327020014316064E-1 -5.964850492141822E-2
1.7206621551210072E-1 -7.571930574044891E-2
1.5962808422119035E-1 -9.022641142326243E-2
1.461443388647015E-1 -1.03096066059919E-1
1.3180515379579488E-1 -1.1427503478190089E-1
1.1680032952181302E-1 -1.237301323558298E-1
1.013174086782981E-1 -1.3144753974503817E-1
1.0000000000008875 4.836242034107893E-12
9.704655492534513E-1 -9.731827081172831E-2
9.323349080764283E-1 -1.8889103925641448E-1
8.864201289582112E-1 -2.7405115240305017E-1
8.335743327428192E-1 -3.522301346728639E-1
7.746809125560378E-1 -4.229592706041014E-1
7.106429293540177E-1 -4.858696176141353E-1
6.423728106703102E-1 -5.406909897973244E-1
5.707824495144845E-1 -5.87249968921007E-1
4.96773788653534E-1 -6.254670087559104E-1
4.212299652098757E-1 -6.553527064758086E-1
3.450070803809169E-1 -6.770033201392639E-1
2.689266493193084E-1 -6.905956155054109E-1
1.9376877636557144E-1 -6.963811283398716E-1
1.2026609110902237E-1 -6.946799302884906E-1
4.9098471081586395E-2 -6.858739871390456E-1
-1.9111432475625655E-2 -6.704001982538986E-1
-8.380185846472378E-2 -6.487432049065396E-1
-1.444747908621609E-1 -6.214280533351777E-1
-2.006980144805433E-1 -5.890127957084091E-1
-2.5210638916241296E-1 -5.520811087256279E-1
-2.98402367170216E-1 -5.11235005583344E-1
-3.393557852947989E-1 -4.6708771224890555E-1
-3.7480296910171E-1 -4.2025677399524847E-1
-4.0464519206823296E-1 -3.7135745243581864E-1
-4.2884653698466685E-1 -3.209964673408172E-1
-4.474312108919899E-1 -2.6976613140329675E-1
-4.604803679973725E-1 -2.18238919535989E-1
-4.6812849740202567E-1 -1.6696250799672643E-1
-4.705594343232869E-1 -1.1645531176961024E-1
-4.6800205443919884E-1 -6.720254223442562E-2
-4.607257114284505E-1 -1.9652800686404442E-2
-4.4903547752064543E-1 2.578478308801329E-2
-4.3326724592500204E-1 6.874286405083724E-2
-4.1378275265635933E-1 1.088976497664404E-1
-3.9096457325952844E-1 1.4597013100170161E-1
-3.6521114751666894E-1 1.7972678856841E-1
-3.369318823123344E-1 2.0997979457960345E-1
-3.065423795902258E-1 2.365867306804174E-1
-2.744598327628889E-1 2.594498496943097E-1
-2.4109863106985474E-1 2.785149106357981E-1
-2.068662072754837E-1 2.937696199361327E-1
-1.721591598640135E-1 3.0524171423127355E-1
-1.3735967653836104E-1 3.129967220936967E-1
-1.0283228135073773E-1 3.171354435223103E-1
-6.892092338984579E-2 3.17791187111339E-1
-3.594642053055777E-2 3.151268053372181E-1
-4.20426738049117E-3 3.093315685222605E-1
2.6037187646580067E-2 3.0061791778265345E-1
5.453819527883876E-2 2.892181364562432E-1
8.108869134515688E-2 2.7538097847628845E-1
1.0550902245768462E-1 2.593682907596795E-1
1.2765032148905556E-1 2.4145166486743355E-1
1.4739454604237773E-1 2.2190915120473284E-1
1.6465419602834772E-1 2.010220667275295E-1
1.7937172892982026E-1 1.7907192461081325E-1
1.9151869359381585E-1 1.5633751178074276E-1
2.0109460529407397E-1 1.3309213730371844E-1
2.0812558634725867E-1 1.0960107177192475E-1
2.1266279782696917E-1 8.611919484970115E-2
2.147806888460662E-1 6.288886519612782E-2
2.1457509046873535E-1 4.013802386132228E-2
2.1216118161114597E-1 1.8078539417327767E-2
2.0767135430062236E-1 -3.0951998543133534E-3
2.0125300544533192E-1 -2.3207444226484665E-2
1.9306628176576507E-1 -4.2101991333149805E-2
1.8328180391769636E-1 -5.964284811352484E-2
1.7207839511265857E-1 -7.571465056854446E-2
1.596408389115075E-1 -9.022284781063712E-2
1.4615769049654406E-1 -1.0309365778286197E-1
1.3181916597853965E-1 -1.1427380190783605E-1
1.1681513494664157E-1 -1.2373002458337705E-1
1.0000000000008875 4.836242034107893E-12
9.704686302483992E-1 -9.731984836497848E-2
9.323398898137988E-1 -1.888943954825756E-1
8.864260515189448E-1 -2.74056300551606E-1
8.335804347483324E-1 -3.5223694489169854E-1
7.74686606154981E-1 -4.22967511681499E-1
7.106477767185723E-1 -4.8587899204687124E-1
6.423765030109642E-1 -5.407011620621606E-1
5.707847884708835E-1 -5.872605878725325E-1
4.9677466965921785E-1 -6.254777251721642E-1
4.2122936243419024E-1 -6.553631866112026E-1
3.450050329930543E-1 -6.770132559795153E-1
2.68923248888675E-1 -6.906047322605754E-1
1.937641553075917E-1 -6.963891896102404E-1
1.2026041212548816E-1 -6.946867412392842E-1
4.909191758644291E-2 -6.858793959882109E-1
-1.9118664958167775E-2 -6.704040963101215E-1
-8.380956991537397E-2 -6.487455254015851E-1
-1.4448278340183485E-1 -6.214287692389358E-1
-2.007060980260992E-1 -5.890119167234829E-1
-2.5211438611552556E-1 -5.520786776429034E-1
-2.9841011617677127E-1 -5.11231094148823E-1
-3.3936314409105933E-1 -4.670824167100445E-1
-3.7480981651082557E-1 -4.2025021045203453E-1
-4.046514291959016E-1 -3.7134975213465876E-1
-4.288520876759768E-1 -3.209877720299829E-1
-4.474360215320482E-1 -2.697565888292898E-1
-4.604844067099363E-1 -2.1822867921613187E-1
-4.681317527526851E-1 -1.6695171729518363E-1
-4.70561913584121E-1 -1.1644411237942587E-1
-4.6800378151465316E-1 -6.71910670876728E-2
-4.607267245148267E-1 -1.964117134620342E-2
-4.4903582657204305E-1 2.5796458520902395E-2
-4.3326699002208474E-1 6.87544925390709E-2
-4.1378195732087825E-1 1.089091543959667E-1
-3.9096330780938426E-1 1.4598145155169542E-1
-3.652094824989152E-1 1.797378815808437E-1
-3.3692988708520655E-1 2.0999063297912693E-1
-3.0654012009099396E-1 2.365973029560745E-1
-2.744573695133827E-1 2.594601587114084E-1
-2.4109601744690284E-1 2.7852497210843796E-1
-2.068634880691012E-1 2.9377946060742877E-1
-1.7215637016348004E-1 3.0525136985049806E-1
-1.3735684092681655E-1 3.130062351991601E-1
-1.0282941344654914E-1 3.1714486113522117E-1
-6.891802571013005E-2 3.17800558366625E-1
-3.594348467306137E-2 3.1513617912103364E-1
-4.201274515723054E-3 3.0934099117786407E-1
2.6040266004963834E-2 3.006274309178263E-1
5.4541396241730856E-2 2.8922777492089613E-1
8.109205939982324E-2 2.7539076853822153E-1
1.0551260802678276E-1 2.59378248520741E-1
1.276541793465329E-1 2.4146179495445033E-1
1.47398733627703E-1 2.219194457553841E-1
1.6465877170650867E-1 2.0103250468408043E-1
1.7937675024063215E-1 1.790824713536032E-1
1.915242155514947E-1 1.5634811908202467E-1
2.0110067878391777E-1 1.3310274361791663E-1
2.0813225667115695E-1 1.0961160285669744E-1
2.1267010346908194E-1 8.612956470765738E-2
2.1478866051483664E-1 6.289897733112022E-2
2.1458375050284625E-1 4.014777285793617E-2
2.1217054384706335E-1 1.808781284879454E-2
2.0768142453910765E-1 -3.0865191257889936E-3
2.0126378271169248E-1 -2.3199475282279555E-2
1.9307776064812987E-1 -4.2094851764683174E-2
1.8329397840250672E-1 -5.9636649566175814E-2
1.7209126455415208E-1 -7.570949270795382E-2
1.5965441698748448E-1 -9.021880976570142E-2
1.4617201809639516E-1 -1.0309078581305149E-1
1.3183432817893379E-1 -1.142720923959102E-1
1.0000000000008875 4.836242034107893E-12
9.704711680945705E-1 -9.732151302668393E-2
9.323439619104494E-1 -1.888978046421443E-1
8.864308339650977E-1 -2.740613911412773E-1
8.335852701184487E-1 -3.522435440768381E-1
7.746909861050516E-1 -4.229753688395341E-1
7.106513241858352E-1 -4.85887806595603E-1
6.423789553102889E-1 -5.407106066012077E-1
5.707859815707327E-1 -5.872703269298064E-1
4.9677452363079744E-1 -6.254874301233305E-1
4.2122786796526007E-1 -6.55372547311088E-1
3.450022388757452E-1 -6.770219895648587E-1
2.6891925043628717E-1 -6.906125895376664E-1
1.9375908367216824E-1 -6.963959593639399E-1
1.2025442451656011E-1 -6.946922527376735E-1
4.9085188406550545E-2 -6.858835199483988E-1
-1.912595205406908E-2 -6.704067445402329E-1
-8.381722902451391E-2 -6.487466493312469E-1
-1.4449063242783589E-1 -6.214283575293834E-1
-2.0071396380129466E-1 -5.890099921293913E-1
-2.5212210859610756E-1 -5.520752933036076E-1
-2.9841755174248935E-1 -5.112263294527688E-1
-3.3937016799050246E-1 -4.670763728850542E-1
-3.7481632448823676E-1 -4.202430060186046E-1
-4.0465733837644124E-1 -3.7134151832503043E-1
-4.2885733675180243E-1 -3.209786483158409E-1
-4.474405703385917E-1 -2.6974671861771027E-1
-4.60488235258426E-1 -2.182182058280305E-1
-4.6813485979674435E-1 -1.6694078028915205E-1
-4.705643148058215E-1 -1.1643284426566171E-1
-4.6800550739201696E-1 -6.717959050765068E-2
-4.607278179780295E-1 -1.9629596713230515E-2
-4.490363404896505E-1 2.5808034859754407E-2
-4.3326698461719454E-1 6.876598964717881E-2
-4.1378149757072613E-1 1.0892050757508391E-1
-3.9096246089260356E-1 1.4599261267126595E-1
-3.652083153496937E-1 1.7974881893814143E-1
-3.3692846409956256E-1 2.1000133070908347E-1
-3.0653850104679836E-1 2.3660776004465972E-1
-2.744556077185503E-1 2.594703876300507E-1
-2.410941581735179E-1 2.7853499715837193E-1
-2.0686156727171323E-1 2.937893159800916E-1
-1.7215441351969718E-1 3.052610975002155E-1
-1.3735486320511617E-1 3.1301588257288887E-1
-1.028274181919194E-1 3.1715447879764475E-1
-6.891600526589199E-2 3.178101976220698E-1
-3.594142050664251E-2 3.1514588964345724E-1
-4.199137848374942E-3 3.093508187377307E-1
2.6042513300474645E-2 3.006374152382562E-1
5.4543800496352296E-2 2.892379477115251E-1
8.109467379628706E-2 2.754011517569589E-1
1.0551549107421121E-1 2.593888528911886E-1
1.2765739322595565E-1 2.4147261876946371E-1
1.4740234245526734E-1 2.219304739953875E-1
1.6466283976061857E-1 2.0104370845845254E-1
1.7938134020618082E-1 1.7909380768527725E-1
1.9152938683312648E-1 1.5635953103231554E-1
2.0110648594664468E-1 1.3311416075684973E-1
2.0813874806240976E-1 1.0962294207155973E-1
2.12677320093371E-1 8.614073135774569E-2
2.1479663523330458E-1 6.290986672761266E-2
2.1459250764510182E-1 4.015827210070081E-2
2.1218009934956086E-1 1.8097803041303765E-2
2.076917867601894E-1 -3.0771602203179178E-3
2.0127495412553986E-1 -2.319087000585654E-2
1.9308974070467186E-1 -4.2087118553652145E-2
1.8330676793387382E-1 -5.962989778843481E-2
1.721048721866603E-1 -7.570381584474035E-2
1.5966886794034252E-1 -9.021427634192956E-2
1.4618736507207883E-1 -1.0308742785778131E-1
1.0000000000008875 4.836242034107893E-12
9.704732420947529E-1 -9.732320998367867E-2
9.32347251482222E-1 -1.8890118807300887E-1
8.864346306577546E-1 -2.7406634054365664E-1
8.335890072336252E-1 -3.522498545561697E-1
7.746942261760696E-1 -4.2298277638156256E-1
7.106537451138973E-1 -4.8589601061639887E-1
6.423803364447629E-1 -5.407192891156097E-1
5.707861902443573E-1 -5.872791683582966E-1
4.967735023173035E-1 -6.254961219959215E-1
4.212256221473277E-1 -6.553808022173992E-1
3.449988256438034E-1 -6.77029548670373E-1
2.6891476784284174E-1 -6.906192279589815E-1
1.9375366088103135E-1 -6.964014896834065E-1
1.2024821277360204E-1 -6.94696526885452E-1
4.907835286447775E-2 -6.858864296778152E-1
-1.9133239630845202E-2 -6.704082207014942E-1
-8.382479666415116E-2 -6.487466601248933E-1
-1.4449831344442993E-1 -6.214269059251957E-1
-2.0072160139556125E-1 -5.890071126147073E-1
-2.5212955957845934E-1 -5.520710481165685E-1
-2.9842468939414263E-1 -5.112208044597063E-1
-3.3937688412258693E-1 -4.670696732218018E-1
-3.748225307301831E-1 -4.202352516452862E-1
-4.04662966762937E-1 -3.7133283959124974E-1
-4.288623396709443E-1 -3.2096918164347876E-1
-4.474449199014265E-1 -2.697366024059166E-1
-4.6049192218332385E-1 -2.1820757664369161E-1
-4.6813789186172783E-1 -1.669297694254887E-1
-4.705667149659941E-1 -1.1642157469957475E-1
-4.680073116206393E-1 -6.716817432242175E-2
-4.6072907291369225E-1 -1.9618133004232898E-2
-4.490371009649306E-1 2.5819461585159815E-2
-4.33267311126775E-1 6.877731056069447E-2
-4.137814537586606E-1 1.0893167012574978E-1
-3.9096211109543527E-1 1.4600358068407418E-1
-3.6520772227239817E-1 1.7975957227088887E-1
-3.3692768665173695E-1 2.100118644656543E-1
-3.0653759239965495E-1 2.3661808341151852E-1
-2.744546136072729E-1 2.59480522364804E-1
-2.410931154735554E-1 2.7854497578455506E-1
-2.0686050288351554E-1 2.9379917975453146E-1
-1.7215334355424275E-1 3.0527089418394326E-1
-1.3735379250877477E-1 3.1302566409894966E-1
-1.0282634018711918E-1 3.171642988608556E-1
-6.891490211298965E-2 3.1782010927325793E-1
-3.594026357230156E-2 3.151559429341796E-1
-4.197888461467602E-3 3.09361058464966E-1
2.6043902826683014E-2 3.0064787885147176E-1
5.454538561206072E-2 2.8924866342120864E-1
8.109651626609127E-2 2.7541213687574123E-1
1.0551765737163078E-1 2.5940011246053674E-1
1.276599528153845E-1 2.4148414448567612E-1
1.474053660092505E-1 2.2194224346019734E-1
1.6466639735970237E-1 2.0105568477705568E-1
1.7938549958242847E-1 1.79105939407991E-1
1.9153421170445162E-1 1.5637175245588458E-1
2.0111203450492288E-1 1.3312639258266248E-1
2.081450716810947E-1 1.0963509241354613E-1
2.1268446231574187E-1 8.615269711324046E-2
2.148046311281688E-1 6.292153530127337E-2
2.1460138362235576E-1 4.016952350614077E-2
2.1218987354943925E-1 1.810851243414988E-2
2.0770247017471702E-1 -3.0671195251943855E-3
2.0128655263133705E-1 -2.318162287316851E-2
1.9310225824354296E-1 -4.20787835217664E-2
1.8332021108019284E-1 -5.9622581449558364E-2
1.7211925621383634E-1 -7.569760582832182E-2
1.596842239813932E-1 -9.02092329667929E-2
1.0000000000008875 4.836242034107893E-12
9.704749178549942E-1 -9.732489809736736E-2
9.323498660360938E-1 -1.889044861941158E-1
8.864375745471369E-1 -2.740710853202319E-1
8.335917932085292E-1 -3.522558179634917E-1
7.746964798192089E-1 -4.2298968622449973E-1
7.106551937272211E-1 -4.8590356914940563E-1
6.423807973443549E-1 -5.407271890990417E-1
5.70785559059865E-1 -5.872871064542513E-1
4.967717415757744E-1 -6.255038096121436E-1
4.212227503041732E-1 -6.553879739863315E-1
3.4499490667896093E-1 -6.770359688123789E-1
2.689099014886987E-1 -6.906246947476161E-1
1.937479735574461E-1 -6.964058382306009E-1
1.2024184928141035E-1 -6.946996304495101E-1
4.907146887696164E-2 -6.858881996869457E-1
-1.9140484242103295E-2 -6.704086056830879E-1
-8.383224364476316E-2 -6.487456437084812E-1
-1.445058111150197E-1 -6.214245040864E-1
-2.0072900875020075E-1 -5.890033703274039E-1
-2.521367495502731E-1 -5.520660355448787E-1
-2.9843155131029725E-1 -5.112146128489317E-1
-3.3938332539291327E-1 -4.6706241061087933E-1
-3.748284778258321E-1 -4.2022703851889653E-1
-4.04668365527256E-1 -3.713238045941413E-1
-4.2886715504459894E-1 -3.209594574345062E-1
-4.474491351196469E-1 -2.6972632175836264E-1
-4.604955375235907E-1 -2.1819686885313705E-1
-4.681409230069662E-1 -1.6691875709799608E-1
-4.7056919106291334E-1 -1.1641037095397994E-1
-4.680092731097358E-1 -6.715688045316934E-2
-4.6073056918380345E-1 -1.9606836640005284E-2
-4.4903818792661043E-1 2.5830687841329598E-2
-4.3326804874595704E-1 6.878840998341197E-2
-4.1378190362700695E-1 1.0894260223236676E-1
-3.909623340807898E-1 1.460143211207407E-1
-3.6520777630344814E-1 1.7977011225898024E-1
-3.369276246928843E-1 2.1002220983898756E-1
-3.065374606339734E-1 2.3662825327259032E-1
-2.744544498887224E-1 2.5949054743418704E-1
-2.410929480480204E-1 2.785548964663129E-1
-2.068603494160456E-1 2.938090439926936E-1
-1.7215321047381993E-1 3.0528075516311703E-1
-1.373536746724013E-1 3.130355778416089E-1
-1.0282622086740686E-1 3.17174321789757E-1
-6.891475329637378E-2 3.178302957861949E-1
-3.594004656367512E-2 3.151663430610454E-1
-4.1975547660112284E-3 3.09371715650544E-1
2.604441036910443E-2 3.0065882791012133E-1
5.454613147076945E-2 2.8925992871853534E-1
8.109757067816141E-2 2.7542373076431764E-1
1.0551909465942927E-1 2.5941203401839635E-1
1.2766184960842922E-1 2.414963785714562E-1
1.474077994215801E-1 2.219547601005197E-1
1.646694431676635E-1 2.0106843892303397E-1
1.7938923046919478E-1 1.791188710462466E-1
1.9153869562219664E-1 1.5638478708875428E-1
2.0111733321316103E-1 1.3313944208227046E-1
2.0815123953577797E-1 1.0964805624013825E-1
2.1269154537364268E-1 8.616546390638898E-2
2.1481266664977158E-1 6.293398485362926E-2
2.1461040006895568E-1 4.018152913832783E-2
2.1219989118313634E-1 1.8119943825837644E-2
2.077135023929801E-1 -3.0563929719212165E-3
2.0129860817895812E-1 -2.3171728033864993E-2
1.931153444093238E-1 -4.20698387478432E-2
1.83334337878809E-1 -5.961469088037938E-2
1.7213444116357296E-1 -7.56908529445242E-2
1.0000000000008875 4.836242034107893E-12
9.704762505925273E-1 -9.732654634945126E-2
9.323518976255163E-1 -1.889076540226538E-1
8.864397810961739E-1 -2.7407557794371984E-1
8.335937572164916E-1 -3.5226139153104485E-1
7.746978828576724E-1 -4.229960648240645E-1
7.10655807257274E-1 -4.85910460411306E-1
6.423804726848548E-1 -5.407342977872176E-1
5.707842170814664E-1 -5.87294145869471E-1
4.9676936247277026E-1 -6.255105108414195E-1
4.212193636475132E-1 -6.553940931127744E-1
3.449905819071205E-1 -6.770412922477759E-1
2.689047389466025E-1 -6.906290428720234E-1
1.937420961716376E-1 -6.96409067514005E-1
1.2023539494251408E-1 -6.947016342340809E-1
4.906458357387082E-2 -6.85888907798599E-1
-1.9147652496900907E-2 -6.704079830422692E-1
-8.383955006696361E-2 -6.487436881112186E-1
-1.4451311859040203E-1 -6.214212432897392E-1
-2.007361914598719E-1 -5.889988586133038E-1
-2.521436957960726E-1 -5.520603498954798E-1
-2.984381655877198E-1 -5.112078488572499E-1
-3.39389529739286E-1 -4.6705467826862834E-1
-3.7483421250421295E-1 -4.202184579815582E-1
-4.046735890953234E-1 -3.713145020356565E-1
-4.288718438762044E-1 -3.209495610802855E-1
-4.4745328245013416E-1 -2.697159581834001E-1
-4.60499152082154E-1 -2.181861596041847E-1
-4.681440273071092E-1 -1.6690781570710464E-1
-4.705718194211274E-1 -1.163993003851621E-1
-4.6801146946871147E-1 -6.714577100527412E-2
-4.6073238479477663E-1 -1.9595764344321778E-2
-4.4903967896568053E-1 2.584166233871757E-2
-4.332692739230738E-1 6.879924204163194E-2
-4.1378292183850535E-1 1.0895326335557509E-1
-3.9096320216675234E-1 1.4602479863559953E-1
-3.6520854694453014E-1 1.797804085599523E-1
-3.369283445095121E-1 2.1003234124864686E-1
-3.065381685055664E-1 2.3663824853907933E-1
-2.744551755327006E-1 2.5950044592726895E-1
-2.410937108914208E-1 2.785647461341114E-1
-2.0686115775869962E-1 2.938188991162954E-1
-1.7215406097543837E-1 3.0529067397514964E-1
-1.3735455215909378E-1 3.1304562007432774E-1
-1.0282709845464615E-1 3.171845462052246E-1
-6.891559282569623E-2 3.1784075775170945E-1
-3.5940799329267636E-2 3.151770922109049E-1
-4.198162517711744E-3 3.093827937089367E-1
2.6044014178725705E-2 3.006702667101418E-1
5.454602023016286E-2 2.892717484586216E-1
8.109782298789202E-2 2.7543593854722065E-1
1.0551979258052274E-1 2.594246226970547E-1
1.2766307682459438E-1 2.4150932594173816E-1
1.474096393767271E-1 2.219680284405238E-1
1.6467197723010935E-1 2.010819749005402E-1
1.7939253617505851E-1 1.7913260601287265E-1
1.9154284506422417E-1 1.5639863774718407E-1
2.0112239163448453E-1 1.331533115342555E-1
2.0815726419406955E-1 1.0966183542415388E-1
2.1269858474965148E-1 8.617903341428437E-2
2.1482076007814527E-1 6.294721714872076E-2
2.146195778716673E-1 4.019429120246426E-2
2.1221017541097306E-1 1.8132100253947868E-2
2.077249082453207E-1 -3.0449763419565915E-3
2.0131114616172657E-1 -2.3161179904302567E-2
1.9312902317229294E-1 -4.2060277547635215E-2
1.8334916739997123E-1 -5.960621949240671E-2
1.0000000000008875 4.836242034107893E-12
9.704772874104723E-1 -9.73281313890124E-2
9.323534258274401E-1 -1.889106579404862E-1
8.864413512087882E-1 -2.740797835928618E-1
8.335950130748964E-1 -3.5226654522147494E-1
7.746985556506283E-1 -4.2300189070770017E-1
7.106557077194489E-1 -4.859166737193779E-1
6.423794823382251E-1 -5.407406164210219E-1
5.707822790594203E-1 -5.873003001444148E-1
4.96766472290041E-1 -6.255162513694477E-1
4.212155601508515E-1 -6.553991968912858E-1
3.449859385800692E-1 -6.770455670849762E-1
2.688993557022248E-1 -6.906323302813703E-1
1.937360917260232E-1 -6.964112442326694E-1
1.2022889984847168E-1 -6.947026125207285E-1
4.90577339717268E-2 -6.85888634672281E-1
-1.9154720377050877E-2 -6.704064386080375E-1
-8.384670462551068E-2 -6.487408831310332E-1
-1.445202368002801E-1 -6.2141721614327E-1
-2.0074316204245862E-1 -5.889936717872938E-1
-2.5215042164296747E-1 -5.520540861428235E-1
-2.984445654680411E-1 -5.112006071486079E-1
-3.3939553933885735E-1 -4.6704656965609587E-1
-3.748397848378706E-1 -4.20209601482375E-1
-4.046786943533304E-1 -3.713050206380894E-1
-4.288764687736572E-1 -3.2093957795209305E-1
-4.4745742913571684E-1 -2.697055931645453E-1
-4.605028366749688E-1 -2.181755260513257E-1
-4.6814727813312673E-1 -1.6689701772461152E-1
-4.705746750072199E-1 -1.1638843050848369E-1
-4.6801397636674447E-1 -6.713490834753315E-2
-4.6073459530055544E-1 -1.958497322663449E-2
-4.490416487867868E-1 2.5852333269277005E-2
-4.3327105986052755E-1 6.880976020396737E-2
-4.13784579527444E-1 1.089636121528136E-1
-3.9096478393345857E-1 1.4603497693617296E-1
-3.652100998196162E-1 1.7979042974740017E-1
-3.3692990843794796E-1 2.1004223190245314E-1
-3.0653977479928884E-1 2.3664804678283333E-1
-2.7445684557887473E-1 2.5951019949020654E-1
-2.4109545514980843E-1 2.785745101829379E-1
-2.068629750681947E-1 2.9382873392381265E-1
-1.721559381738075E-1 3.053006424687396E-1
-1.3735646402337084E-1 3.1305578533360673E-1
-1.0282900795556005E-1 3.171949689654265E-1
-6.891745169196702E-2 3.1785149397699125E-1
-3.594254890233464E-2 3.1518819078544963E-1
-4.199734866823943E-3 3.0939429429448323E-1
2.6042694901895678E-2 3.0068219783177286E-1
5.454503623931911E-2 2.8928412584141233E-1
8.109726114788579E-2 2.7544876376383487E-1
1.055197425821351E-1 2.5943788213869656E-1
1.2766362929734748E-1 2.4152299013662681E-1
1.4741088398612287E-1 2.2198205175718097E-1
1.646740008240928E-1 2.010962956209324E-1
1.7939542103352862E-1 1.7914714679853144E-1
1.9154666731090028E-1 1.564133065042624E-1
2.0112721987584262E-1 1.3316800266676074E-1
2.0816315845023856E-1 1.0967643148545035E-1
2.1270559574595835E-1 8.619340715057928E-2
2.1482892896790354E-1 6.296123395065438E-2
2.1462893645244555E-1 4.020781198384194E-2
2.1222074689110892E-1 1.814498478132429E-2
2.0773670859196042E-1 -3.0328656685345593E-3
2.0132418593941107E-1 -2.3149973816730306E-2
1.9314330961699833E-1 -4.205009538674598E-2
1.0000000000008875 4.836242034107893E-12
9.704780689111414E-1 -9.73296357988621E-2
9.323545199305702E-1 -1.8891347332819994E-1
8.864423734511513E-1 -2.7408367770849273E-1
8.335956612760647E-1 -3.522712594681529E-1
7.74698604860557E-1 -4.2300715248457854E-1
7.106550034160765E-1 -4.859222077699421E-1
6.42377932650856E-1 -5.407461547741205E-1
5.707798465226003E-1 -5.873055904524009E-1
4.9676316546943095E-1 -6.255210636131194E-1
4.212114253914799E-1 -6.554033284879505E-1
3.449810520520194E-1 -6.770488464928344E-1
2.688938158911833E-1 -6.906346192277435E-1
1.9373001246885826E-1 -6.96412438687832E-1
1.2022240398603176E-1 -6.947026425591829E-1
4.905094768445831E-2 -6.85887463367632E-1
-1.916167251570386E-2 -6.704040601039182E-1
-8.385370386375259E-2 -6.487373200278032E-1
-1.445271736829369E-1 -6.214125163441135E-1
-2.007499391572968E-1 -5.889879049352237E-1
-2.521569556660239E-1 -5.520473397762019E-1
-2.9845078853907975E-1 -5.111929826965038E-1
-3.394013998062443E-1 -4.670381783944883E-1
-3.748452474348509E-1 -4.2020056053438104E-1
-4.046837398476814E-1 -3.712954491301222E-1
-4.2888109315983747E-1 -3.2092959340958577E-1
-4.474616424343775E-1 -2.69695308194582E-1
-4.605066613897169E-1 -2.181650454023725E-1
-4.6815074744594115E-1 -1.6688643574519188E-1
-4.7057783076205134E-1 -1.1637782905724851E-1
-4.6801686690690053E-1 -6.712435517879642E-2
-4.607372732273696E-1 -1.9574520849171228E-2
-4.490441686838603E-1 2.586264823892935E-2
-4.332734760481112E-1 6.881991721802759E-2
-4.137869438900725E-1 1.089736064312665E-1
-3.909671438736254E-1 1.460448187489575E-1
-3.6521249637919256E-1 1.7980014328442614E-1
-3.369323746224847E-1 2.100518537822504E-1
-3.0654233414463034E-1 2.3665762424667006E-1
-2.7445951098855714E-1 2.595197883380924E-1
-2.4109822801524053E-1 2.7858417249663187E-1
-2.068658447024671E-1 2.9383853563935747E-1
-1.7215888156453302E-1 3.053106508669128E-1
-1.373594458979457E-1 3.130660664927552E-1
-1.0283198116604782E-1 3.1720558524751624E-1
-6.892035789966496E-2 3.1786250159604595E-1
-3.594531955331849E-2 3.151996375307218E-1
-4.202292421043715E-3 3.094062174361832E-1
2.6040435511771733E-2 3.0069462227402177E-1
5.4543165959354E-2 2.8929706255423193E-1
8.1095875010304E-2 2.754622085294428E-1
1.0551893780674798E-1 2.5945181465717915E-1
1.2766350334954968E-1 2.415373734891747E-1
1.4741153264220247E-1 2.2199683225645195E-1
1.6467551629510274E-1 2.0111140306545955E-1
1.7939789021214794E-1 1.7916249512500695E-1
1.9155017020585363E-1 1.5642879484128566E-1
2.0113182828735712E-1 1.3318351679428173E-1
2.0816893494666838E-1 1.0969184569826765E-1
2.127125930097159E-1 8.620858651895466E-2
2.1483718955316058E-1 6.29760369946907E-2
2.146384930101979E-1 4.022209373318234E-2
2.1223162284529193E-1 1.8158600248538506E-2
2.0774891921278413E-1 -3.0200576636914196E-3
2.0133773960738077E-1 -2.3138106612049417E-2
1.0000000000008875 4.836242034107893E-12
9.704786303684331E-1 -9.733104682866657E-2
9.323552405849886E-1 -1.889160827883648E-1
8.864429257887674E-1 -2.7408724411456575E-1
8.335957906207234E-1 -3.5227552338338525E-1
7.746981249170358E-1 -4.2301184722299734E-1
7.106537902175608E-1 -4.859270692052133E-1
6.423759175626984E-1 -5.407509298966828E-1
5.707770087712912E-1 -5.873100445113828E-1
4.9675952451068867E-1 -6.255249857835871E-1
4.212070333736283E-1 -6.554065361167241E-1
3.4497598654891287E-1 -6.770511879779938E-1
2.6888817304052237E-1 -6.906359756391436E-1
1.937239006264649E-1 -6.964127242486188E-1
1.2021593797016113E-1 -6.947018041106606E-1
4.9044243667012766E-2 -6.858854789589832E-1
-1.916850143758782E-2 -6.704009368306691E-1
-8.386055140229517E-2 -6.487330912566557E-1
-1.445339433938857E-1 -6.214072384637362E-1
-2.007565467921819E-1 -5.889816537504807E-1
-2.521633308608885E-1 -5.520402066793719E-1
-2.984568758889256E-1 -5.111850707111616E-1
-3.3940715934890686E-1 -4.670295982210398E-1
-3.748506546032371E-1 -4.2019142669031956E-1
-4.0468878495898664E-1 -3.7128587625059817E-1
-4.2888578047017784E-1 -3.2091969282176863E-1
-4.4746598884248184E-1 -2.6968518480601966E-1
-4.6051069483992535E-1 -2.1815479496522025E-1
-4.6815450508910705E-1 -1.668761425441039E-1
-4.7058135694245756E-1 -1.1636756404214646E-1
-4.680202110212436E-1 -6.711417458327637E-2
-4.607404875253277E-1 -1.9564465278135053E-2
-4.4904730605061294E-1 2.5872554228945403E-2
-4.3327658782993483E-1 6.882966507651421E-2
-4.137900778096065E-1 1.0898320311618329E-1
-3.90970342073317E-1 1.460542858012824E-1
-3.6521579364152706E-1 1.7980951552468666E-1
-3.3693579680354385E-1 2.100611776532855E-1
-3.0654589685311906E-1 2.3666695586575873E-1
-2.7446321853307215E-1 2.5952919130188096E-1
-2.4110207265174394E-1 2.7859371550519835E-1
-2.068698061865003E-1 2.93848289985904E-1
-1.7216292702390784E-1 3.053206878597265E-1
-1.3736353002446133E-1 3.1307645487529073E-1
-1.0283604672283944E-1 3.172163886688288E-1
-6.892433653001923E-2 3.178737761926442E-1
-3.594913286720103E-2 3.152114296723051E-1
-4.2058533374550846E-3 3.0941856168870585E-1
2.603722120164693E-2 3.0070753962535507E-1
5.454039785050961E-2 2.8931055894354807E-1
8.109365620707999E-2 2.7547627371028327E-1
1.0551737295832883E-1 2.5946642142428733E-1
1.2766269664977267E-1 2.4155247730054605E-1
1.4741158585437647E-1 2.2201237124643755E-1
1.646765268568711E-1 2.0112729846924218E-1
1.7939994947804358E-1 1.7917865211648637E-1
1.9155336188374678E-1 1.56445103790172E-1
2.0113622713561027E-1 1.3319985492535868E-1
2.0817460577425034E-1 1.0970807915728195E-1
2.12719590033699E-1 8.622457283536891E-2
2.1484555614096046E-1 6.299162793038174E-2
2.146482618023343E-1 4.0237138493422725E-2
2.1224281621671462E-1 1.817294899619504E-2
2.0776154990231535E-1 -3.0065500946448434E-3
1.0000000000008875 4.836242034107893E-12
9.704790025991359E-1 -9.73323554540069E-2
9.323556410529245E-1 -1.8891847477335968E-1
8.864430769456783E-1 -2.740904735238636E-1
8.335954795389252E-1 -3.5227933329704525E-1
7.746971992404478E-1 -4.2301597909789185E-1
7.106521526763319E-1 -4.8593127139841197E-1
6.423735196145034E-1 -5.40754965043739E-1
5.707738437884692E-1 -5.873136956305868E-1
4.967556208118662E-1 -6.255280610482066E-1
4.212024473297881E-1 -6.554088723192218E-1
3.4497079594702335E-1 -6.770526527636967E-1
2.6888247083274125E-1 -6.906364685808134E-1
1.9371778916816612E-1 -6.964121768855567E-1
1.2020952382021959E-1 -6.947001790550178E-1
4.903763300357701E-2 -6.858827682034869E-1
-1.9175206755847485E-2 -6.703971593870296E-1
-8.386725711888915E-2 -6.487282902401901E-1
-1.4454056547685332E-1 -6.214014777627607E-1
-2.0076301342172787E-1 -5.889750143935405E-1
-2.5216958379828003E-1 -5.520327830230823E-1
-2.9846287126348797E-1 -5.111769665552652E-1
-3.3941286791872044E-1 -4.670209229447753E-1
-3.7485606151567E-1 -4.2018229152262E-1
-4.046938890839496E-1 -3.712763907409579E-1
-4.2889059335437124E-1 -3.209099615811817E-1
-4.4747053333128695E-1 -2.696753045987784E-1
-4.605150034394366E-1 -2.1814485218340857E-1
-4.681586181099761E-1 -1.6686621111527342E-1
-4.705853204924383E-1 -1.1635770379006445E-1
-4.680240748955365E-1 -6.710443007148595E-2
-4.60744303048464E-1 -1.9554865125172745E-2
-4.49051123921829E-1 2.5881997557088067E-2
-4.3328045601265425E-1 6.883895499904116E-2
-4.1379403952633403E-1 1.0899235824299805E-1
-3.9097443393842946E-1 1.460633388212509E-1
-3.652200439742634E-1 1.798185117224805E-1
-3.3694022415796215E-1 2.1007017309485068E-1
-3.065505088026313E-1 2.3667601530982596E-1
-2.7446801072673493E-1 2.5953838588821965E-1
-2.4110702816928012E-1 2.786031202690128E-1
-2.0687489521172073E-1 2.938579812751629E-1
-1.721681068332101E-1 3.0533074070283284E-1
-1.3736874529927318E-1 3.1308694036600593E-1
-1.0284123017435487E-1 3.1722737142410945E-1
-6.892940982620055E-2 3.178853119492043E-1
-3.5954007838748595E-2 3.152235630709601E-1
-4.210433427681161E-3 3.0943132429331693E-1
2.6033039271910616E-2 3.0072094822882384E-1
5.45367222469271E-2 2.8932461419207195E-1
8.109059801763246E-2 2.754909590943826E-1
1.0551504415784232E-1 2.5948170264148207E-1
1.2766120804558936E-1 2.4156830202446802E-1
1.4741104506708577E-1 2.2202866930826953E-1
1.6467703639211367E-1 2.011439824662925E-1
1.7940160495706933E-1 1.7919561843490747E-1
1.9155625047715769E-1 1.564622340535787E-1
2.011404262510556E-1 1.3321701785376008E-1
2.081801820525109E-1 1.0972513282059441E-1
2.1272659866514607E-1 8.624136729959592E-2
2.1485404052395593E-1 6.30080082367046E-2
2.1465825348324932E-1 4.025294793907175E-2
2.122543349925675E-1 1.8188032616446637E-2
1.0000000000008875 4.836242034107893E-12
9.704792126329881E-1 -9.73335556662118E-2
9.323557682013998E-1 -1.8892064253018812E-1
8.864428875071456E-1 -2.740933623588499E-1
8.335947971948144E-1 -3.522826915826385E-1
7.746959012928539E-1 -4.2301955828344934E-1
7.106501650070047E-1 -4.8593483343453747E-1
6.423708108630984E-1 -5.407582887554021E-1
5.707704191082532E-1 -5.873165819047652E-1
4.9675151549517227E-1 -6.255303368136067E-1
4.2119772051000254E-1 -6.554103933264027E-1
3.449655245448995E-1 -6.770533052280396E-1
2.6887674387617455E-1 -6.90636169770772E-1
1.9371170257845902E-1 -6.964108747530048E-1
1.2020317573921464E-1 -6.946978510252024E-1
4.903111970252474E-2 -6.858794192328029E-1
-1.9181794356258258E-2 -6.703928194183362E-1
-8.387383631031763E-2 -6.487230111665525E-1
-1.445470640066991E-1 -6.213953300327435E-1
-2.0076937114072874E-1 -5.889680833668751E-1
-2.5217575374156653E-1 -5.520251651820702E-1
-2.984688201866931E-1 -5.111687656917274E-1
-3.3941857634680295E-1 -4.6701224640859956E-1
-3.748615233498533E-1 -4.201732466171263E-1
-4.046991108028073E-1 -3.7126708135697445E-1
-4.288955928776757E-1 -3.209004851212547E-1
-4.474753385872951E-1 -2.696657492638824E-1
-4.605196506910415E-1 -2.1813529466040782E-1
-4.6816315009685905E-1 -1.6685671470025812E-1
-4.705897844370408E-1 -1.1634831697314094E-1
-4.6802852042556303E-1 -6.7095185600659E-2
-4.6074878007918535E-1 -1.954577955078042E-2
-4.490556805580157E-1 2.5890923878099697E-2
-4.3328513650807343E-1 6.884773743306685E-2
-4.137988823459688E-1 1.0900102697875275E-1
-3.90979469969068E-1 1.4607193757588285E-1
-3.65225294924212E-1 1.7982709608701797E-1
-3.3694570118072853E-1 2.1007880856890213E-1
-3.065562113700323E-1 2.3668477507208477E-1
-2.7447392579114477E-1 2.595473483700287E-1
-2.4111312962583092E-1 2.7861236657968297E-1
-2.0688114367624413E-1 2.9386759253482875E-1
-1.7217444974847157E-1 3.053407953629683E-1
-1.373751173613383E-1 3.130975115631473E-1
-1.0284755407972984E-1 3.1723852444012296E-1
-6.893559731122346E-2 3.1789710181784236E-1
-3.595996100059497E-2 3.152360324025174E-1
-4.2160462893319406E-3 3.09444501361975E-1
2.6027878995434472E-2 3.0073484536150114E-1
5.4532131213716147E-2 2.893392265007637E-1
8.108669521172444E-2 2.755062635845446E-1
1.0551194877921165E-1 2.5949765772064404E-1
1.2765903738947137E-1 2.4158484743025166E-1
1.4740991245770776E-1 2.2204572645931503E-1
1.6467704922060794E-1 2.0116145524503892E-1
1.794028628769335E-1 1.7921339440626843E-1
1.9155884381888238E-1 1.564801860991338E-1
2.0114443468070328E-1 1.3323500621569978E-1
2.0818567351838893E-1 1.0974300753035085E-1
2.1273362863541548E-1 8.625897096237484E-2
2.1486265147946285E-1 6.3025179112043E-2
2.1466847458828522E-1 4.026952322443951E-2
1.0000000000008875 4.836242034107893E-12
9.704792842256362E-1 -9.733464391418413E-2
9.323556632886466E-1 -1.8892258326087627E-1
8.86442410822558E-1 -2.7409591179752013E-1
8.335938044161236E-1 -3.5228560568507256E-1
7.746942954887687E-1 -4.2302260001326597E-1
7.106478919618163E-1 -4.859377792392837E-1
6.423678537132473E-1 -5.407609340554659E-1
5.70766792611023E-1 -5.873187454840081E-1
4.9674726018818505E-1 -6.255318640850045E-1
4.211928969606616E-1 -6.554111584969987E-1
3.449602078424651E-1 -6.770532124145965E-1
2.688710184894237E-1 -6.906351531492131E-1
1.9370565765731887E-1 -6.964088978219095E-1
1.2019690093490298E-1 -6.946949051058171E-1
4.90247015368801E-2 -6.858755213031799E-1
-1.9188275542333624E-2 -6.70388009408802E-1
-8.388030882501786E-2 -6.487173488243658E-1
-1.4455346670949445E-1 -6.213888914700373E-1
-2.0077565478000756E-1 -5.889609574198645E-1
-2.5218188176850787E-1 -5.520174496609929E-1
-2.984747690784092E-1 -5.111605636421702E-1
-3.39424335476668E-1 -4.6700366246742003E-1
-3.7486709445058086E-1 -4.2016438355180985E-1
-4.0470450706601735E-1 -3.712580368601152E-1
-4.289008377438945E-1 -3.2089134891781573E-1
-4.474804642737477E-1 -2.6965660059342866E-1
-4.6052469649973404E-1 -2.1812620017091805E-1
-4.6816816055353133E-1 -1.6684772679344323E-1
-4.7059480731895337E-1 -1.1633947260802492E-1
-4.680336047152722E-1 -6.708650557474008E-2
-4.607539738898469E-1 -1.953726826105272E-2
-4.4906102908355844E-1 2.5899278210707886E-2
-4.332906800413624E-1 6.88559620939752E-2
-4.1380465440649417E-1 1.0900916366732362E-1
-3.909854955835127E-1 1.4608004092650417E-1
-3.652315891015614E-1 1.7983523185181002E-1
-3.3695226761547054E-1 2.1008705149773327E-1
-3.065630414072424E-1 2.36693206558421E-1
-2.744809976770733E-1 2.5955605390445746E-1
-2.4112040807557578E-1 2.786214330861663E-1
-2.0688857975477962E-1 2.938771056373629E-1
-1.7218198108647517E-1 3.0535083665332513E-1
-1.3738266869929255E-1 3.131081559330408E-1
-1.0285503812634145E-1 3.1724983753705965E-1
-6.894291590812014E-2 3.1790913768102397E-1
-3.596700655360995E-2 3.1524883132632436E-1
-4.222703448044195E-3 3.094580880552095E-1
2.6021731464368626E-2 3.007492274244869E-1
5.4526618392757395E-2 2.8935439326915313E-1
8.108194389182179E-2 2.75522185369349E-1
1.0550808527402553E-1 2.595142854597732E-1
1.2765618534660578E-1 2.4160211277509883E-1
1.4740819073095002E-1 2.2206354230301892E-1
1.6467656986255563E-1 2.01179716683277E-1
1.794037292939722E-1 1.7923198013730152E-1
1.9156114913449976E-1 1.5649896024316387E-1
2.0114826034119182E-1 1.3325382053217688E-1
2.0819108815130707E-1 1.0976170399921943E-1
2.1274068715256247E-1 8.62773846731047E-2
2.148713943625247E-1 6.304314138923878E-2
1.0000000000008875 4.836242034107893E-12
9.70479238271044E-1 -9.733561867001318E-2
9.323553626025868E-1 -1.8892429744599304E-1
8.864416937546868E-1 -2.740981269873511E-1
8.335925544866666E-1 -3.522880873104624E-1
7.746924379977457E-1 -4.230251237961905E-1
7.106453896279035E-1 -4.859401368423886E-1
6.423647017118851E-1 -5.407629377851773E-1
5.707630133084007E-1 -5.873202319706426E-1
4.967428977955938E-1 -6.255326969163266E-1
4.2118801229313135E-1 -6.554112298277389E-1
3.449548733211702E-1 -6.770524436066814E-1
2.688653134986525E-1 -6.906334945168324E-1
1.9369966433435365E-1 -6.964063275682766E-1
1.2019070044942272E-1 -6.946914275623325E-1
4.9018370893683674E-2 -6.858711645685925E-1
-1.9194666164566766E-2 -6.703828224957669E-1
-8.388669817936824E-2 -6.487113984477719E-1
-1.445598040664373E-1 -6.213822585558525E-1
-2.0078190099651652E-1 -5.889537334635284E-1
-2.521880098647833E-1 -5.520097330318667E-1
-2.984807643697625E-1 -5.111524559287284E-1
-3.3943019529114404E-1 -4.66995264951769E-1
-3.7487282747917827E-1 -4.201557938820609E-1
-4.0471013237938885E-1 -3.7124934601068815E-1
-4.289063835273281E-1 -3.2088263848259535E-1
-4.474859663208579E-1 -2.6964794046845797E-1
-4.605301965151189E-1 -2.1811764665208078E-1
-4.6817370430231936E-1 -1.6683932113118075E-1
-4.7060044266847134E-1 -1.1633124003651861E-1
-4.680393796193731E-1 -6.707845480882009E-2
-4.6075993435331114E-1 -1.9529391468165624E-2
-4.490672171579734E-1 2.590700497721852E-2
-4.332971318901894E-1 6.88635780203068E-2
-4.1381139848685133E-1 1.0901672190018948E-1
-3.9099255098771607E-1 1.4608760691644182E-1
-3.652389640997798E-1 1.7984288137262436E-1
-3.3695995842911325E-1 2.1009486838306063E-1
-3.0657103125558655E-1 2.3670128021723089E-1
-2.744892561165711E-1 2.595644766687292E-1
-2.4112889065603318E-1 2.7863029745141515E-1
-2.0689722801093077E-1 2.938865014703515E-1
-1.721907228581636E-1 3.0536084841456507E-1
-1.373914187927274E-1 3.1311885999109323E-1
-1.0286369928652937E-1 3.1726129962279803E-1
-6.895138010300862E-2 3.1792141055106315E-1
-3.597515652979914E-2 3.152619526841058E-1
-4.230414518205235E-3 3.094720787747381E-1
2.6014589429848377E-2 3.007640901294144E-1
5.4520178831435166E-2 2.8937011128797585E-1
8.107634131469958E-2 2.755387221088543E-1
1.0550345298874807E-1 2.5953158421065964E-1
1.27652653196868E-1 2.4162009695766912E-1
1.4740588290242815E-1 2.2208211616801588E-1
1.646756028100552E-1 2.0119876645487664E-1
1.794042098371554E-1 1.7925137559457716E-1
1.9156317275514495E-1 1.5651855670678225E-1
2.0115190970283237E-1 1.332734612368705E-1
2.081964318396654E-1 1.0978122280160223E-1
2.1274777859264843E-1 8.629660902451232E-2
1.0000000000008875 4.836242034107893E-12
9.704790931342566E-1 -9.733648007912428E-2
9.323548979955577E-1 -1.889257882998967E-1
8.86440777326478E-1 -2.741000164071881E-1
8.33591093848901E-1 -3.522901517568259E-1
7.746903774694055E-1 -4.23027152754618E-1
7.10642706155542E-1 -4.8594193774105454E-1
6.423614002757496E-1 -5.407643400026013E-1
5.70759122080007E-1 -5.873210898754161E-1
4.967384632530046E-1 -6.255328919285613E-1
4.211830944534111E-1 -6.554106715277028E-1
3.449495412252381E-1 -6.770510699452585E-1
2.6885964103682064E-1 -6.906312711959558E-1
1.9369372649063918E-1 -6.964032466839157E-1
1.2018457000728412E-1 -6.946875056016072E-1
4.901211563965404E-2 -6.85866439878571E-1
-1.9200985735627916E-2 -6.703773523112002E-1
-8.3893030655871E-2 -6.487052555953029E-1
-1.4456610841194167E-1 -6.213755279514885E-1
-2.007881473772291E-1 -5.889465084837744E-1
-2.521941800270226E-1 -5.520021118752922E-1
-2.9848685161097877E-1 -5.111445380454747E-1
-3.394362040492011E-1 -4.6698714764053817E-1
-3.7487877258630203E-1 -4.2014756911322476E-1
-4.0471603801840617E-1 -3.712410975459743E-1
-4.289122819272997E-1 -3.2087443935312804E-1
-4.4749189623467384E-1 -2.6963985085035497E-1
-4.6053620151167596E-1 -2.1810971218172404E-1
-4.681798309310638E-1 -1.668315716657574E-1
-4.7060673852048696E-1 -1.163236888962252E-1
-4.680458913336386E-1 -6.707109849037637E-2
-4.6076670561385785E-1 -1.9522209830410548E-2
-4.4907428672275573E-1 2.5914048075442397E-2
-4.3330453169784067E-1 6.887053365468619E-2
-4.1381915188165586E-1 1.0902365460890737E-1
-3.91000671110585E-1 1.4609459287436508E-1
-3.652474524848372E-1 1.798500062484887E-1
-3.3696880384383976E-1 2.1010222493544292E-1
-3.065802088164581E-1 2.3670896568367814E-1
-2.7449872671544473E-1 2.595725900092505E-1
-2.4113860070562224E-1 2.786389365077538E-1
-2.0690710953439187E-1 2.9389576010488344E-1
-1.7220069392075119E-1 3.0537081369509494E-1
-1.3740138427272114E-1 3.1312960948815766E-1
-1.0287355197772816E-1 3.172728988769965E-1
-6.896100211284803E-2 3.179339107617898E-1
-3.5984420960717564E-2 3.1527538869082816E-1
-4.239187376790663E-3 3.094864673577628E-1
2.600644712791661E-2 3.007794286852842E-1
5.4512808811688025E-2 2.8938637691256835E-1
8.106988571261778E-2 2.7555587110140434E-1
1.0549805197783832E-1 2.595495520349369E-1
1.2764844264145522E-1 2.4163879865392482E-1
1.474029920852198E-1 2.2210144722829053E-1
1.6467415228814994E-1 2.0121860413856613E-1
1.7940430945664643E-1 1.7927158068015217E-1
1.9156491985714724E-1 1.5653897564713998E-1
2.0115538753067624E-1 1.3329392867001455E-1
2.0820170812874186E-1 1.098015643535818E-1
1.0000000000008875 4.836242034107893E-12
9.704788649252137E-1 -9.733722968123798E-2
9.323542973310551E-1 -1.889270613240139E-1
8.864396972734119E-1 -2.741015913319736E-1
8.335894627168849E-1 -3.5229181733929965E-1
7.746881556874917E-1 -4.2302871305122397E-1
7.106398824438868E-1 -4.859432163584401E-1
6.423579873983939E-1 -5.407651834825259E-1
5.707551523963612E-1 -5.873213701558597E-1
4.9673398426448645E-1 -6.255325078894761E-1
4.211781644847019E-1 -6.554095496459033E-1
3.4494422535463415E-1 -6.770491641105935E-1
2.688540073640687E-1 -6.906285617617685E-1
1.9368784280318313E-1 -6.96399738843825E-1
1.2017850088471804E-1 -6.946832271771601E-1
4.9005920017810026E-2 -6.858614386230374E-1
-1.9207256523975154E-2 -6.703716928418886E-1
-8.389933438260033E-2 -6.486990160385571E-1
-1.4457241299862575E-1 -6.213687964209164E-1
-2.007944315071465E-1 -5.889393794827271E-1
-2.522004333525505E-1 -5.519946827213923E-1
-2.984930745876174E-1 -5.111369054004514E-1
-3.394424074282815E-1 -4.66979404220097E-1
-3.7488497659256775E-1 -4.201398006647988E-1
-4.047222712614411E-1 -3.7123338013706103E-1
-4.289185800682089E-1 -3.2086683703397256E-1
-4.474983004550641E-1 -2.6963241372439545E-1
-4.60542756810266E-1 -2.181024749233514E-1
-4.681865842907732E-1 -1.668245524979084E-1
-4.7061373698721914E-1 -1.163168890416556E-1
-4.6805318003922974E-1 -6.706450210042288E-2
-4.607743257990762E-1 -1.951578437085336E-2
-4.4908227378751153E-1 2.592035097935875E-2
-4.3331291333120164E-1 6.887677695594291E-2
-4.1382794632302844E-1 1.0902991419033033E-1
-3.9100988557973193E-1 1.46100955550453E-1
-3.652570818213616E-1 1.7985656746568868E-1
-3.3697882940437957E-1 2.1010908622855376E-1
-3.06590597658664E-1 2.3671623194588803E-1
-2.7450943109701736E-1 2.595803666292295E-1
-2.4114955792304293E-1 2.786473264476464E-1
-2.0691824211118878E-1 2.9390486098430546E-1
-1.722119101518064E-1 3.0538071493946223E-1
-1.3741257910902419E-1 3.131403896096378E-1
-1.028846082513769E-1 3.1728462295367865E-1
-6.897179206953069E-2 3.1794662816778824E-1
-3.599480806279396E-2 3.15289131133515E-1
-4.249028343755903E-3 3.095012472674211E-1
2.599730009457967E-2 3.0079523798990426E-1
5.450450566244451E-2 2.894031862448693E-1
8.106257610548422E-2 2.755736294506627E-1
1.054918828065261E-1 2.595681868599061E-1
1.276435555943454E-1 2.4165821646157779E-1
1.4739952128223674E-1 2.22121534617778E-1
1.646722220429852E-1 2.0123922929597446E-1
1.7940403219989864E-1 1.7929259529122157E-1
1.9156639423366395E-1 1.5656021719978078E-1
2.0115869667257907E-1 1.3331522308891627E-1
1.0000000000008875 4.836242034107893E-12
9.704785677344812E-1 -9.733787018143167E-2
9.323535848737626E-1 -1.889281239344107E-1
8.864384845363005E-1 -2.741028653848191E-1
8.335876956403138E-1 -3.5229310491943383E-1
7.746858081772408E-1 -4.2302983341420874E-1
7.106369527840838E-1 -4.859440095812977E-1
6.423544943239287E-1 -5.407655132780825E-1
5.707511310244657E-1 -5.873211258150307E-1
4.9672948204217554E-1 -6.255316053540682E-1
4.2117323729163497E-1 -6.554079317473936E-1
3.4493893385544955E-1 -6.770468000313385E-1
2.688484136863176E-1 -6.906254457877679E-1
1.9368200759306667E-1 -6.963958884922095E-1
1.2017248077629834E-1 -6.946786807990513E-1
4.899976553238916E-2 -6.858562525710222E-1
-1.921350264680848E-2 -6.703659383053465E-1
-8.390563842651681E-2 -6.486927756482495E-1
-1.4457875109523913E-1 -6.21362160726815E-1
-2.008007900705099E-1 -5.889324433915542E-1
-2.5220680914816873E-1 -5.519875419869813E-1
-2.9849947445566777E-1 -5.111296532556582E-1
-3.394488476963802E-1 -4.669721282211661E-1
-3.748914822036308E-1 -4.201325798132232E-1
-4.047288746512417E-1 -3.712262823396567E-1
-4.2892531981865645E-1 -3.208599169496925E-1
-4.475052197522934E-1 -2.696257110355258E-1
-4.6054990174668187E-1 -2.180960130545092E-1
-4.681940020383032E-1 -1.668183378021158E-1
-4.706214738820713E-1 -1.1631091046189027E-1
-4.6806127961523325E-1 -6.705873130668487E-2
-4.6078282681482785E-1 -1.95101763576506E-2
-4.4909120829305005E-1 2.59258568593923E-2
-4.33322304812133E-1 6.888225553471862E-2
-4.138378079762926E-1 1.0903545265300164E-1
-3.910202187721966E-1 1.461066512735711E-1
-3.652678747687741E-1 1.798625255653305E-1
-3.369900561142384E-1 2.101154168796779E-1
-3.0660221717560887E-1 2.3672304752844986E-1
-2.7452138707731233E-1 2.5958777877098493E-1
-2.4116177856192084E-1 2.7865544302246814E-1
-2.0693064043254045E-1 2.93913783136299E-1
-1.7222438466236678E-1 3.0539053420266643E-1
-1.3742501481167288E-1 3.131511851807241E-1
-1.028968779967129E-1 3.1729645918716387E-1
-6.898375821948471E-2 3.1795955234597867E-1
-3.600632443112043E-2 3.153031715692463E-1
-4.259942369228466E-3 3.0951641178131256E-1
2.5987144989504406E-2 3.008115127993298E-1
5.449526758300394E-2 2.894205352954758E-1
8.105441212402571E-2 2.7559199421265784E-1
1.0548494637774149E-1 2.595874866007917E-1
1.276379940061505E-1 2.416783489939361E-1
1.4739547319552443E-1 2.22142377510465E-1
1.6466981514768805E-1 2.0126064153414994E-1
1.7940338102760886E-1 1.7931441934966771E-1
1.915675981334915E-1 1.5658228148083228E-1
1.0000000000008875 4.836242034107893E-12
9.704782138272996E-1 -9.733840525504532E-2
9.323527816293289E-1 -1.8892898515482326E-1
8.864371656999783E-1 -2.741038541614159E-1
8.335858220179176E-1 -3.522940374955567E-1
7.746833647765143E-1 -4.23030544722991E-1
7.106339454718708E-1 -4.859443563562356E-1
6.423509462016507E-1 -5.407653763437436E-1
5.707470787159555E-1 -5.873204115527741E-1
4.9672497202782273E-1 -6.255302463457227E-1
4.211683224026331E-1 -6.55405886633203E-1
3.4493367001967545E-1 -6.770440526435471E-1
2.688428569876528E-1 -6.906220036333037E-1
1.9367621168747343E-1 -6.963917806594594E-1
1.201664946906193E-1 -6.946739553882804E-1
4.899363186133954E-2 -6.858509737410111E-1
-1.9219749144344586E-2 -6.703601830361489E-1
-8.391197184936305E-2 -6.486866303105883E-1
-1.4458515504313335E-1 -6.213557175631258E-1
-2.008072579258967E-1 -5.889257970030377E-1
-2.5221334403200696E-1 -5.519807859037767E-1
-2.9850608887244745E-1 -5.111228766692446E-1
-3.3945556288812E-1 -4.6696541295950994E-1
-3.748983272423356E-1 -4.2012599762198294E-1
-4.047358852954535E-1 -3.712198925120214E-1
-4.2893253715773716E-1 -3.2085376435938046E-1
-4.4751268866364036E-1 -2.696198246030956E-1
-4.6055766919418484E-1 -2.1809040466858473E-1
-4.682021152448438E-1 -1.6681300171416916E-1
-4.706299784100836E-1 -1.1630582315840596E-1
-4.6807021740051663E-1 -6.705385184611376E-2
-4.607922341865392E-1 -1.9505447171800583E-2
-4.491011140310664E-1 2.5930508729315103E-2
-4.333327282976631E-1 6.888691680133267E-2
-4.138487574743912E-1 1.090402217740928E-1
-3.910316899014824E-1 1.461116361211927E-1
-3.652798492100506E-1 1.7986784082421634E-1
-3.370025005961918E-1 2.101211812333011E-1
-3.066150827767819E-1 2.3672938068995597E-1
-2.745346088744809E-1 2.5959479842287775E-1
-2.4117527564843802E-1 2.7866326174471884E-1
-2.0694431631184917E-1 2.9392250537501E-1
-1.7223812802024654E-1 3.0540025335945753E-1
-1.37438700657864E-1 3.131619808827012E-1
-1.0291036915380171E-1 3.1730839480120926E-1
-6.899690712911849E-2 3.179726727994404E-1
-3.601897523544182E-2 3.1531750151756055E-1
-4.2719332285342205E-3 3.095319541811303E-1
2.5975979402442922E-2 3.008282479084143E-1
5.448509345879367E-2 2.894384201418325E-1
8.104539382690859E-2 2.75610962538086E-1
1.0547724374550958E-1 2.596074492890459E-1
1.2763175968349466E-1 2.4169919498895323E-1
1.4739085005641664E-1 2.221639751973688E-1
1.6466693384005898E-1 2.0128284055832935E-1
1.7940235766856386E-1 1.7933705283507353E-1
1.0000000000008875 4.836242034107893E-12
9.704778138210615E-1 -9.733883939586252E-2
9.323519056482619E-1 -1.8892965535521708E-1
8.864357633957876E-1 -2.7410457491133555E-1
8.335838665701433E-1 -3.5229463985358694E-1
7.746808501739104E-1 -4.2303087965722475E-1
7.106308834006587E-1 -4.8594429734946265E-1
6.423473627245558E-1 -5.407648212117717E-1
5.707430108957766E-1 -5.873192834700038E-1
4.967204646230428E-1 -6.255284940889482E-1
4.211634247351505E-1 -6.554034840962252E-1
3.4492843308556176E-1 -6.770409976733157E-1
2.6883733086561945E-1 -6.906183162572955E-1
1.9367044328311736E-1 -6.963875007971688E-1
1.2016052583454857E-1 -6.94669140128978E-1
4.898749776646029E-2 -6.858456942811022E-1
-1.9226021063194983E-2 -6.703545213771026E-1
-8.391836280087091E-2 -6.486806758148159E-1
-1.4459165535439505E-1 -6.213495634503285E-1
-2.0081386721356834E-1 -5.889195368833988E-1
-2.5222007106951816E-1 -5.519745104311108E-1
-2.985129511737861E-1 -5.111166703947793E-1
-3.394625860276352E-1 -4.669593514374094E-1
-3.7490554392645464E-1 -4.2012014484318355E-1
-4.047433342084336E-1 -3.712142987147084E-1
-4.2894026159967735E-1 -3.2084846424278496E-1
-4.475207350006966E-1 -2.6961483599432207E-1
-4.605660851511258E-1 -2.180857276445752E-1
-4.6821094806740193E-1 -1.668086181987801E-1
-4.7063927292904856E-1 -1.1630169700146571E-1
-4.680800140427151E-1 -6.704992936667589E-2
-4.608025669786189E-1 -1.9501658151722414E-2
-4.491120086356964E-1 2.5934249612827906E-2
-4.3334420014431024E-1 6.889070814979951E-2
-4.1386081003938147E-1 1.0904417329130665E-1
-3.910443131817285E-1 1.4611586611315514E-1
-3.652930184523723E-1 1.798724734556379E-1
-3.3701617531900085E-1 2.1012634357450222E-1
-3.0662920612905864E-1 2.367351996348734E-1
-2.7454910735977933E-1 2.596013975362081E-1
-2.4119005923437734E-1 2.786707581091601E-1
-2.0695927893693944E-1 2.939310065193633E-1
-1.7225314848821735E-1 3.054098543145492E-1
-1.3745364391947215E-1 3.131727614562281E-1
-1.0292508793657537E-1 3.173204171123112E-1
-6.90112438969041E-2 3.1798597915215626E-1
-3.6032764422443575E-2 3.153321126462686E-1
-4.28500370651018E-3 3.0954786791780686E-1
2.5963801678256862E-2 3.0084543830525895E-1
5.447398269029052E-2 2.894568370699721E-1
8.103552154055575E-2 2.756305317910288E-1
1.0546877596347419E-1 2.5962807316913866E-1
1.276248541372127E-1 2.4172075338821367E-1
1.4738565348499197E-1 2.2218632714475245E-1
1.6466357940774481E-1 2.013058261989502E-1
1.0000000000008875 4.836242034107893E-12
9.704773768393817E-1 -9.733917777992065E-2
9.323509723008572E-1 -1.8893014603421876E-1
8.864342966752097E-1 -2.74105046270745E-1
8.335818497943628E-1 -3.522949382781021E-1
7.746782844231019E-1 -4.2303087239541304E-1
7.10627784635467E-1 -4.8594387465313316E-1
6.423437587552662E-1 -5.407638977127917E-1
5.707389383314592E-1 -5.873177988030847E-1
4.9671596590846434E-1 -6.25526412770651E-1
4.211585453620987E-1 -6.554007947127101E-1
3.449232190450457E-1 -6.770377114491544E-1
2.688318263755101E-1 -6.906144650521382E-1
1.9366468882463855E-1 -6.963831346331972E-1
1.2015455651478023E-1 -6.946643243360696E-1
4.8981342004728125E-2 -6.858405063409191E-1
-1.9232342527330255E-2 -6.703490475695049E-1
-8.39248375822443E-2 -6.486750077607398E-1
-1.4459827979428236E-1 -6.213437946390118E-1
-2.0082064646620482E-1 -5.889137592645413E-1
-2.5222701891419946E-1 -5.5196881115478E-1
-2.9852008955969006E-1 -5.111111287808614E-1
-3.3946994437299677E-1 -4.6695403622931214E-1
-3.749131581841279E-1 -4.201151117935923E-1
-4.0475124570293375E-1 -3.7120958857506725E-1
-4.289485156601772E-1 -3.2084410116611645E-1
-4.4752937940213605E-1 -2.6961082638716977E-1
-4.6057516838692664E-1 -2.18082059499008E-1
-4.682205174868345E-1 -1.6680526088983097E-1
-4.7064937277100233E-1 -1.1629860156622329E-1
-4.6809068340781973E-1 -6.704702924957633E-2
-4.6081383779006363E-1 -1.949887039836653E-2
-4.491239036434132E-1 2.5937022738831663E-2
-4.333567310231986E-1 6.889357715580272E-2
-4.1387397564887046E-1 1.0904725910626528E-1
-3.910580980363133E-1 1.4611929742723087E-1
-3.653073914644391E-1 1.7987638382578922E-1
-3.3703108885738503E-1 2.1013086834704992E-1
-3.066445954294783E-1 2.3674047273830845E-1
-2.745648903336347E-1 2.5960754824633464E-1
-2.4120613667404733E-1 2.7867790781987506E-1
-2.069755351398555E-1 2.939392656204709E-1
-1.7226945228669746E-1 3.0541931923009036E-1
-1.3746985010749552E-1 3.131835119179882E-1
-1.0294103905983469E-1 3.173325137333227E-1
-6.902677236543531E-2 3.179994613446108E-1
-3.604769491302736E-2 3.1534699695374285E-1
-4.29915578700783E-3 3.095641467824383E-1
2.595061074407567E-2 3.0086307931570255E-1
5.4461935029520014E-2 2.8947578270271707E-1
8.102479570063956E-2 2.756506996597083E-1
1.0545954394220747E-1 2.5964935678006523E-1
1.276172784622599E-1 2.417430233885125E-1
1.4737988438406657E-1 2.2220943303239507E-1
1.0000000000008875 4.836242034107893E-12
9.704769106541284E-1 -9.733942615609426E-2
9.323499945347291E-1 -1.8893046963639654E-1
8.864327813565575E-1 -2.7410528803143697E-1
8.335797883910101E-1 -3.522949602966723E-1
7.74675683441123E-1 -4.2303055835554726E-1
7.106246629717454E-1 -4.8594313152793456E-1
6.423401449463602E-1 -5.407626567353017E-1
5.707348678090969E-1 -5.873160157050963E-1
4.967114783635994E-1 -6.255240673324115E-1
4.2115368227707756E-1 -6.55397889653518E-1
3.4491802145046696E-1 -6.770342707343201E-1
2.6882633287168395E-1 -6.906105316910974E-1
1.9365893387524089E-1 -6.963787680357233E-1
1.2014856903659588E-1 -6.946595973360035E-1
4.897514424596932E-2 -6.858355019641504E-1
-1.9238735824746514E-2 -6.703438556403217E-1
-8.393141973907893E-2 -6.486697214446824E-1
-1.4460505248375194E-1 -6.21338507001663E-1
-2.008276197401219E-1 -5.889085599335859E-1
-2.52234210982071E-1 -5.519637831598919E-1
-2.985275263207117E-1 -5.11106345639664E-1
-3.3947765870664615E-1 -4.66949559345741E-1
-3.74921189013804E-1 -4.2011098821439063E-1
-4.047596368329242E-1 -3.7120584914276594E-1
-4.2895731439432455E-1 -3.208407591168814E-1
-4.4753863496487734E-1 -2.6960787639680267E-1
-4.6058493016649854E-1 -2.180794772074055E-1
-4.682308331270935E-1 -1.6680300290548378E-1
-4.7066028615300015E-1 -1.1629660594198861E-1
-4.6810223256658945E-1 -6.704521642520947E-2
-4.6082605281488337E-1 -1.949714458880971E-2
-4.491368046249132E-1 2.5938771738216664E-2
-4.3337032610782855E-1 6.889547177922134E-2
-4.138882592664612E-1 1.0904943149185718E-1
-3.910730493616852E-1 1.461218866070693E-1
-3.653229731642091E-1 1.7987953267204046E-1
-3.3704724618778403E-1 2.101347203688071E-1
-3.066612557086844E-1 2.367451687684357E-1
-2.7458196282716874E-1 2.596132230992558E-1
-2.4122351291324776E-1 2.78684687004973E-1
-2.0699308967196153E-1 2.9394726217230344E-1
-1.7228704385286212E-1 3.054286307292275E-1
-1.374873232211509E-1 3.131942177671125E-1
-1.029582259662386E-1 3.173446727665882E-1
-6.904349532915728E-2 3.180131098110903E-1
-3.606376879001371E-2 3.1536214692960485E-1
-4.314390822963692E-3 3.095807850509629E-1
2.593640594832888E-2 3.008811667371508E-1
5.444895043974077E-2 2.8949525410341836E-1
8.101321672857094E-2 2.7567146423896516E-1
1.0544954833266817E-1 2.5967129902772385E-1
1.276090332374847E-1 2.417660044969664E-1
1.0000000000008875 4.836242034107893E-12
9.704764218124445E-1 -9.733959075102276E-2
9.323489831101044E-1 -1.8893063939076513E-1
8.864312303569813E-1 -2.7410532094605683E-1
8.33577695675853E-1 -3.5229473446705223E-1
7.746730594938482E-1 -4.2302997397709247E-1
7.10621528485972E-1 -4.859421121900792E-1
6.423365283462451E-1 -5.407611500140816E-1
5.707308027994545E-1 -5.87313993050376E-1
4.9670700159135434E-1 -6.255215232963928E-1
4.2114883116464724E-1 -6.553948405184563E-1
3.4491283222999486E-1 -6.770307525765618E-1
2.6882083886040486E-1 -6.906065979869991E-1
1.9365316399912008E-1 -6.963744868765157E-1
1.2014254660466368E-1 -6.946550483341352E-1
4.89688859856807E-2 -6.858307729593304E-1
-1.924522048929148E-2 -6.7033903927659E-1
-8.39381291590882E-2 -6.486649117245976E-1
-1.4461199302138295E-1 -6.213337958900169E-1
-2.0083480577033047E-1 -5.889040340887148E-1
-2.5224166465681835E-1 -5.519595208814084E-1
-2.9853527710404426E-1 -5.111024140833638E-1
-3.394857426731649E-1 -4.6694601206419617E-1
-3.749296479103946E-1 -4.2010786308381315E-1
-4.047685169087839E-1 -3.7120316669425846E-1
-4.2896666500308767E-1 -3.2083852131187957E-1
-4.4754850694970555E-1 -2.696060658734107E-1
-4.605953740528143E-1 -2.1807805699819954E-1
-4.6824189715045644E-1 -1.6680191663955157E-1
-4.706720141650293E-1 -1.1629577851765745E-1
-4.6811466187018563E-1 -6.704455514712401E-2
-4.6083921198656963E-1 -1.949654074847106E-2
-4.4915071138840396E-1 2.5939440872415252E-2
-4.3338498533027603E-1 6.88963405968087E-2
-4.139036611394336E-1 1.0905064333471208E-1
-3.910891678474867E-1 1.4612359080304016E-1
-3.6533976475646895E-1 1.798818813431976E-1
-3.3706464903708433E-1 2.1013786508176172E-1
-3.066791891680111E-1 2.3674925712012132E-1
-2.7460032742896057E-1 2.5961839528375624E-1
-2.4124219080351458E-1 2.7869107245295976E-1
-2.070119455008715E-1 2.939549763420052E-1
-1.7230592611007106E-1 3.0543777211199635E-1
-1.3750606598845563E-1 3.132048651792304E-1
-1.0297665105174383E-1 3.173568829924786E-1
-6.906141474011175E-2 3.1802691565450913E-1
-3.608098748781064E-2 3.1537755571682125E-1
-4.330709702704667E-3 3.095977776210906E-1
2.592118691529759E-2 3.0089969695129865E-1
5.4435028962888106E-2 2.895152488766553E-1
8.10007849200849E-2 2.7569282410482393E-1
1.0543878944722945E-1 2.5969389922535924E-1
1.0000000000008875 4.836242034107893E-12
9.704759157610637E-1 -9.733967819217042E-2
9.323479468288988E-1 -1.8893066918268392E-1
8.864296540093902E-1 -2.7410516655966266E-1
8.335755819782298E-1 -3.522942901919655E-1
7.746704216687559E-1 -4.2302915652790907E-1
7.106183880800392E-1 -4.859408616227029E-1
6.423329130103922E-1 -5.407594299535154E-1
5.707267441211981E-1 -5.873117902588497E-1
4.9670253303427075E-1 -6.255188466031834E-1
4.2114398616731674E-1 -6.553917191882762E-1
3.4490764249567285E-1 -6.770272341654782E-1
2.6881533284771814E-1 -6.906027457636111E-1
1.9364736563582166E-1 -6.963703769042849E-1
1.2013647421639745E-1 -6.946507662854586E-1
4.896255144440849E-2 -6.858264107638089E-1
-1.925181240202666E-2 -6.703346916872007E-1
-8.394498118279606E-2 -6.486606728817145E-1
-1.446191156260484E-1 -6.213297559821329E-1
-2.0084221715524384E-1 -5.889002761710928E-1
-2.5224939052833983E-1 -5.519561179277181E-1
-2.98543350222938E-1 -5.110994263377938E-1
-3.394942021660311E-1 -4.669434847337697E-1
-3.749385383349501E-1 -4.2010582442440786E-1
-4.047778870663158E-1 -3.712016265262069E-1
-4.289765665064998E-1 -3.2083746998248586E-1
-4.4755899255795123E-1 -2.6960547368778287E-1
-4.6060649578753227E-1 -2.1807787413436555E-1
-4.6825370423566115E-1 -1.6680207354054152E-1
-4.7068455083383837E-1 -1.1629618676083033E-1
-4.681279650943932E-1 -6.70451087727612E-2
-4.6085330919769707E-1 -1.949711802484277E-2
-4.491656182583669E-1 2.5938975265367398E-2
-4.3340070369660166E-1 6.889613302855625E-2
-4.139201771410486E-1 1.0905084835540751E-1
-3.911064503428749E-1 1.4612436800474846E-1
-3.6535776409920545E-1 1.798833920253481E-1
-3.3708329624525085E-1 2.1014026877471015E-1
-3.0669839553876654E-1 2.3675270804964266E-1
-2.7461998462508586E-1 2.59623038854464E-1
-2.4126217141725437E-1 2.786970418234487E-1
-2.070321040985228E-1 2.939623891715918E-1
-1.723261007384858E-1 3.054467275565431E-1
-1.3752608011067283E-1 3.13215441197582E-1
-1.0299631587728574E-1 3.173691340385555E-1
-6.908053189137967E-2 3.18040870796335E-1
-3.609935194888808E-2 3.153932172363935E-1
-4.348112990801176E-3 3.096151201260466E-1
2.590495342590963E-2 3.009186670164688E-1
5.442017062390578E-2 2.8953576523191993E-1
8.098750036921894E-2 2.757147783611246E-1
1.0000000000008875 4.836242034107893E-12
9.704753969567178E-1 -9.733969543513939E-2
9.323468927476422E-1 -1.8893057343856293E-1
8.864280603696453E-1 -2.741048470718699E-1
8.335734550316071E-1 -3.522936575617466E-1
7.746677763402307E-1 -4.230281439406325E-1
7.106152460137242E-1 -4.8593942540626583E-1
6.423293006019106E-1 -5.407575494664507E-1
5.707226906087679E-1 -5.873094671470789E-1
4.966980686972667E-1 -6.25516103463198E-1
4.2113914066255764E-1 -6.55388597686792E-1
3.449024433635407E-1 -6.770237926972594E-1
2.688098041915839E-1 -6.905990567149092E-1
1.9364152698283016E-1 -6.963665236079374E-1
1.2013033956296187E-1 -6.946468397580684E-1
4.895612847677739E-2 -6.85822506305046E-1
-1.92585228989468E-2 -6.703309054422985E-1
-8.39519857384665E-2 -6.486570984419002E-1
-1.4462642830650296E-1 -6.213264810979287E-1
-2.0084985958085755E-1 -5.888973796675596E-1
-2.522573916819621E-1 -5.519536668712829E-1
-2.985517460226997E-1 -5.110974735233779E-1
-3.395030347882688E-1 -4.669420665381823E-1
-3.749478552754111E-1 -4.2010495905664297E-1
-4.047877399275924E-1 -3.7120131271544643E-1
-4.2898700951126617E-1 -3.2083768612910385E-1
-4.4757008080461236E-1 -2.696061774842491E-1
-4.6061828326722004E-1 -2.1807900266427394E-1
-4.682662416537555E-1 -1.6680354386343807E-1
-4.706978832899614E-1 -1.1629789696864636E-1
-4.6814212967960855E-1 -6.704693951260092E-2
-4.6086833259443705E-1 -1.949893444871574E-2
-4.4918151441743426E-1 2.593732113913924E-2
-4.3341747167243666E-1 6.889479958693417E-2
-4.1393779917610185E-1 1.0905000135706926E-1
-3.911248902675764E-1 1.4612417727956467E-1
-3.6537696611784304E-1 1.7988402798725528E-1
-3.3710318416212187E-1 2.101418988187591E-1
-3.067188724575379E-1 2.367554929016042E-1
-2.746409331516756E-1 2.5962712896122375E-1
-2.412834543740569E-1 2.787025738695799E-1
-2.0705356573673067E-1 2.939694827881428E-1
-1.7234756843255247E-1 3.054554823079089E-1
-1.3754736649361596E-1 3.132259339106985E-1
-1.0301722137395959E-1 3.173814165417248E-1
-6.910084759691117E-2 3.180549681215415E-1
-3.611886277963611E-2 3.154091263159855E-1
-4.366601054993082E-3 3.0963280903196766E-1
2.588770531386585E-2 3.009380747451651E-1
5.440437535181069E-2 2.895568020411981E-1
1.0000000000008875 4.836242034107893E-12
9.704748689778934E-1 -9.733964971050309E-2
9.323458263840331E-1 -1.8893036702478108E-1
8.864264555128246E-1 -2.741043852104818E-1
8.33571320354793E-1 -3.52292867218489E-1
7.746651276307461E-1 -4.2302697467452033E-1
7.106121044404322E-1 -4.859378495828477E-1
6.423256909909707E-1 -5.407555618326368E-1
5.707186397727693E-1 -5.873070837916254E-1
4.966936038635973E-1 -6.255133602213384E-1
4.211342880241917E-1 -6.55385548039837E-1
3.448972267622653E-1 -6.770205052379039E-1
2.6880424394653385E-1 -6.90595612265448E-1
1.9363563886310337E-1 -6.963630120669073E-1
1.2012413390517951E-1 -6.946433567657737E-1
4.894960944613718E-2 -6.858191498174829E-1
-1.9265357898663498E-2 -6.703277722926683E-1
-8.395914649489493E-2 -6.486542809828628E-1
-1.4463393205623176E-1 -6.213240639894388E-1
-2.0085773107319324E-1 -5.888954368867817E-1
-2.522656630265016E-1 -5.51952259009351E-1
-2.985604562940181E-1 -5.110966454092055E-1
-3.3951222936054465E-1 -4.669418452487616E-1
-3.7495758486480546E-1 -4.201053523397781E-1
-4.0479805933413154E-1 -3.7120230785192776E-1
-4.2899797605633533E-1 -3.20839249260783E-1
-4.4758175247670196E-1 -2.696082534206882E-1
-4.60630716607424E-1 -2.1808151516646446E-1
-4.6827948942681275E-1 -1.6680639641663322E-1
-4.7071199200775937E-1 -1.1630097402367856E-1
-4.681571370449781E-1 -6.705010818862175E-2
-4.608842649539087E-1 -1.9502046682508878E-2
-4.491983843203931E-1 2.593442605823943E-2
-4.3343527561550366E-1 6.889229210897406E-2
-4.1395651562800334E-1 1.090480584596135E-1
-3.911444780559987E-1 1.4612297900834886E-1
-3.65397363237595E-1 1.7988375381293736E-1
-3.3712430706374985E-1 2.101427239024204E-1
-3.0674061585320106E-1 2.3675758433332025E-1
-2.746631703516171E-1 2.596306420619715E-1
-2.4130603816250568E-1 2.7870764864242803E-1
-2.0707632977547502E-1 2.939762405972396E-1
-1.723703291560889E-1 3.05464022858142E-1
-1.3756992546267258E-1 3.132363326085322E-1
-1.0303936802677054E-1 3.17393722288947E-1
-6.91223623439801E-2 3.180692015966236E-1
-3.6139520373669465E-2 3.154252787863362E-1
-4.38617416323247E-3 3.096508417179122E-1
2.58694423968786E-2 3.009579187560712E-1
1.0000000000008875 4.836242034107893E-12
9.704743346304077E-1 -9.733954847423229E-2
9.323447519234951E-1 -1.8893006517186867E-1
8.864248438290899E-1 -2.741038041305313E-1
8.33569181629803E-1 -3.5229195023859616E-1
7.746624778652493E-1 -4.230256875857204E-1
7.106089639383963E-1 -4.8593618052707455E-1
6.423220828576794E-1 -5.407535205723124E-1
5.707145884663072E-1 -5.873047003984962E-1
4.966891338241277E-1 -6.255106832321934E-1
4.211294224032885E-1 -6.553826421467045E-1
3.448919862517737E-1 -6.770174485832969E-1
2.687986457142162E-1 -6.905924934210411E-1
1.9362969559627483E-1 -6.963599267880235E-1
1.2011785295886403E-1 -6.946404045994912E-1
4.894299210035383E-2 -6.858164306534924E-1
-1.9272317057189743E-2 -6.70325382949544E-1
-8.396646005453669E-2 -6.486523118972076E-1
-1.4464162010241557E-1 -6.213225960850375E-1
-2.008658213136548E-1 -5.888945386933144E-1
-2.522741906917031E-1 -5.519519840866612E-1
-2.9856946376987975E-1 -5.110970301221637E-1
-3.395217655238036E-1 -4.669429069319703E-1
-3.749677040944673E-1 -4.201070878868226E-1
-4.0480882017909403E-1 -3.7120469275271856E-1
-4.290094395636802E-1 -3.2084223710766263E-1
-4.475939801957552E-1 -2.6961177588961227E-1
-4.6064376830755444E-1 -2.1808548248125748E-1
-4.682934205865183E-1 -1.6681069830077494E-1
-4.7072685114643875E-1 -1.1630548113124425E-1
-4.6817296298950895E-1 -6.705467398584998E-2
-4.609010841313334E-1 -1.9506509778689167E-2
-4.4921620817897623E-1 2.593023917890921E-2
-4.3345409827710807E-1 6.888856400713345E-2
-4.1397631185975914E-1 1.0904497734778965E-1
-3.9116520164698315E-1 1.4612073512616575E-1
-3.6541894584565127E-1 1.7988253563300188E-1
-3.3714665758461987E-1 2.1014271425604328E-1
-3.0676362034431626E-1 2.3675895653606746E-1
-2.746866925271938E-1 2.5963355613003714E-1
-2.413299204521869E-1 2.787122476839556E-1
-2.071003949328773E-1 2.9398264745823494E-1
-1.7239438237710264E-1 3.0547233710795696E-1
-1.3759375696444157E-1 3.1324662793006125E-1
-1.0306275603747833E-1 3.174060443385041E-1
-6.914507642548032E-2 3.180835663721579E-1
-3.616132501208587E-2 3.1544167155594965E-1
-4.406832557053444E-3 3.0966921652737234E-1
1.0000000000008875 4.836242034107893E-12
9.704737960446468E-1 -9.73393993622896E-2
9.323436724110201E-1 -1.8892968339560237E-1
8.864232283064155E-1 -2.7410312731818276E-1
8.33567041071812E-1 -3.5229093802638817E-1
7.746598280225234E-1 -4.2302432181596133E-1
7.106058240326778E-1 -4.8593446482499664E-1
6.423184742843985E-1 -5.407514793241193E-1
5.70710533541821E-1 -5.873023771777269E-1
4.966846545892623E-1 -6.255081387240011E-1
4.211245394927757E-1 -6.553799516391589E-1
3.4488671783154096E-1 -6.770146991064869E-1
2.6879300648350274E-1 -6.905897806026852E-1
1.936236958572729E-1 -6.963573515222095E-1
1.2011149775434281E-1 -6.94638069615789E-1
4.8936280428832225E-2 -6.858144370612715E-1
-1.927939293248948E-2 -6.703238268468892E-1
-8.397391516372725E-2 -6.486512811309835E-1
-1.4464947717781038E-1 -6.213221672116386E-1
-2.0087411099412422E-1 -5.888947742104763E-1
-2.5228295147561625E-1 -5.519529299935196E-1
-2.9857874167709714E-1 -5.110987138416032E-1
-3.395316134119137E-1 -4.6694533563582485E-1
-3.7497818061068783E-1 -4.201102472508232E-1
-4.0481998832659705E-1 -3.7120854616167825E-1
-4.290213648809001E-1 -3.208467253304676E-1
-4.476067285780431E-1 -2.6961681723307157E-1
-4.6065740351923995E-1 -2.180909734295537E-1
-4.683080015311084E-1 -1.6681651464108677E-1
-4.7074242898001634E-1 -1.1631147956166756E-1
-4.6818957818000323E-1 -6.7060694190498E-2
-4.6091876357709505E-1 -1.951237693507696E-2
-4.492349624912556E-1 2.592471148127469E-2
-4.334739193342623E-1 6.88835704948441E-2
-4.13997170732733E-1 1.0904071749274864E-1
-3.9118704698075724E-1 1.4611740934531434E-1
-3.654417027603731E-1 1.798803413448594E-1
-3.3717022714533207E-1 2.101418418628592E-1
-3.067878796265706E-1 2.367595854357095E-1
-2.747114952881041E-1 2.5963585084866825E-1
-2.4135509839692823E-1 2.78716354207158E-1
-2.0712575954580567E-1 2.9398868985238197E-1
-1.724197272798618E-1 3.054804145127721E-1
-1.3761886074069066E-1 3.132568119888385E-1
-1.0308738546572747E-1 3.174183771254358E-1
-6.916899004713827E-2 3.180980588644372E-1
-3.61842769444133E-2 3.1545830267925606E-1
1.0000000000008875 4.836242034107893E-12
9.704732547814257E-1 -9.733921016026273E-2
9.323425899515365E-1 -1.889292374430336E-1
8.864216108200236E-1 -2.7410237851682234E-1
8.335648998007421E-1 -3.522898622271916E-1
7.746571781897248E-1 -4.230229166987523E-1
7.1060268372906E-1 -4.8593274917582463E-1
6.423148633596252E-1 -5.4074949173372E-1
5.707064725195977E-1 -5.873001742194917E-1
4.966801636139234E-1 -6.255057926612664E-1
4.2111963730015306E-1 -6.553775477288568E-1
3.4488142075231387E-1 -6.770123325896427E-1
2.687873274688001E-1 -6.905875534554522E-1
1.936176435298503E-1 -6.963553690547165E-1
1.2010507548810884E-1 -6.946364370054028E-1
4.892948548587291E-2 -6.858132559149498E-1
-1.9286570195408036E-2 -6.703231918524255E-1
-8.398149197461609E-2 -6.486512768805445E-1
-1.4465747885477015E-1 -6.213228652746231E-1
-2.0088257123804554E-1 -5.88896230488547E-1
-2.522919123768622E-1 -5.519551824197753E-1
-2.985882533867665E-1 -5.111017804532073E-1
-3.3954173342476923E-1 -4.6694921305302955E-1
-3.749889726204475E-1 -4.201149095963142E-1
-4.0483152064744454E-1 -3.7121394442774563E-1
-4.2903370843907485E-1 -3.208527872147355E-1
-4.4761995450521136E-1 -2.6962344745583755E-1
-4.606715804161674E-1 -2.1809805454116268E-1
-4.683231924794213E-1 -1.6682390832322685E-1
-4.70758688409801E-1 -1.1631902840687042E-1
-4.682069487071357E-1 -6.70682239575547E-2
-4.609372729282785E-1 -1.9519699251698063E-2
-4.492546206429827E-1 2.5917796010304264E-2
-4.3349471597968753E-1 6.887726882434196E-2
-4.140190731745295E-1 1.0903524038299167E-1
-3.9120999853079935E-1 1.4611296738106466E-1
-3.6546562171867747E-1 1.798771408305274E-1
-3.371950063938454E-1 2.101400806695978E-1
-3.0681338686051385E-1 2.3675944889383477E-1
-2.747375738871686E-1 2.596375077957166E-1
-2.413815689189325E-1 2.787199532645908E-1
-2.0715242180547494E-1 2.939943560286323E-1
-1.7244636295893934E-1 3.0548824620872667E-1
-1.3764523647694651E-1 3.132668784757882E-1
-1.0311325634160587E-1 3.174307165469482E-1
-6.919410340194011E-2 3.1811267681004224E-1
1.0000000000008875 4.836242034107893E-12
9.704727119252002E-1 -9.733898876453165E-2
9.323415058959105E-1 -1.8892874323185255E-1
8.864199924095854E-1 -2.7410158165335635E-1
8.335627582080415E-1 -3.5228875464146775E-1
7.74654528007031E-1 -4.230215116595277E-1
7.105995420331599E-1 -4.8593108027808246E-1
6.423112487693867E-1 -5.407476113343538E-1
5.70702404247106E-1 -5.872981513678796E-1
4.966756605157413E-1 -6.25503710603051E-1
4.211147169147468E-1 -6.553755010424516E-1
3.4487609832098004E-1 -6.770104240354151E-1
2.6878161493916536E-1 -6.905858906339843E-1
1.9361154854299545E-1 -6.963540609558155E-1
1.2009860035990515E-1 -6.946355905244642E-1
4.892262621185856E-2 -6.858129724298591E-1
-1.9293824863046774E-2 -6.703235639432169E-1
-8.398916134406312E-2 -6.486523852432917E-1
-1.4466559092665726E-1 -6.213247758965278E-1
-2.0089116308276075E-1 -5.888989921381051E-1
-2.523010301895679E-1 -5.519588244887509E-1
-2.9859795214393886E-1 -5.111063111819237E-1
-3.39552076096845E-1 -4.669546181606808E-1
-3.750000288967194E-1 -4.2012115135335737E-1
-4.048433651622871E-1 -3.712209611770267E-1
-4.290464185234613E-1 -3.208604933587754E-1
-4.476336075053085E-1 -2.6963173393370315E-1
-4.6068625066525554E-1 -2.1810678978852852E-1
-4.683389480181731E-1 -1.6683293974154115E-1
-4.707755875744502E-1 -1.1632818432447982E-1
-4.682250367243413E-1 -6.707731606808792E-2
-4.609565786478633E-1 -1.952852550783337E-2
-4.4927515353782316E-1 2.5909448094041297E-2
-4.3351646353046763E-1 6.886961850377928E-2
-4.1404199874850917E-1 1.0902850973569858E-1
-3.912340398281194E-1 1.46107377152072E-1
-3.654906898492531E-1 1.7987290615369594E-1
-3.37220985622585E-1 2.10137406770428E-1
-3.0684013503220076E-1 2.3675852687593485E-1
-2.7476492352413906E-1 2.596385105977704E-1
-2.4140932896286532E-1 2.787230318885775E-1
-2.0718037996130398E-1 2.939996361299062E-1
-1.724742885794145E-1 3.0549582511999285E-1
-1.376728839234E-1 3.132768227410621E-1
-1.0314036874302143E-1 3.1744306001359773E-1
1.0000000000008875 4.836242034107893E-12
9.704721681828523E-1 -9.73387431615543E-2
9.32340421032981E-1 -1.8892821680283572E-1
8.864183735582899E-1 -2.741007607709631E-1
8.335606163204606E-1 -3.5228764714376104E-1
7.746518771182468E-1 -4.230201461280948E-1
7.105963984834053E-1 -4.859295047359663E-1
6.423076304012553E-1 -5.407458914295362E-1
5.706983295653808E-1 -5.872963680800923E-1
4.9667114779940397E-1 -6.255019575439867E-1
4.211097832771352E-1 -6.553738814374331E-1
3.4487075870464673E-1 -6.77009047452875E-1
2.6877588104565925E-1 -6.905848695622652E-1
1.9360542770401448E-1 -6.963535073111745E-1
1.2009209437873085E-1 -6.94635612174024E-1
4.891573020432238E-2 -6.858136698114768E-1
-1.9301123570963568E-2 -6.70325026848923E-1
-8.39968841857596E-2 -6.486546898377407E-1
-1.4467376885821429E-1 -6.213279820177228E-1
-2.008998370484617E-1 -5.889031409219813E-1
-2.5231025120149264E-1 -5.51963936354797E-1
-2.986077809000114E-1 -5.111123842045553E-1
-3.3956258207641404E-1 -4.6696162685102094E-1
-3.75011288902738E-1 -4.201290458698364E-1
-4.0485546130077044E-1 -3.712296669911298E-1
-4.290594356581052E-1 -3.2086991138012844E-1
-4.4764763025193394E-1 -2.6964174113207795E-1
-4.607013600214609E-1 -2.1811724031377508E-1
-4.6835521775576683E-1 -1.6684366654951413E-1
-4.707930805327934E-1 -1.1633900131613939E-1
-4.682438011505344E-1 -6.708802071349128E-2
-4.609766447296329E-1 -1.953890194542013E-2
-4.4929653027771E-1 2.5899625551260522E-2
-4.335391360701489E-1 6.886058149626934E-2
-4.140659262509665E-1 1.0902049170010143E-1
-3.91259153999699E-1 1.4610060897988505E-1
-3.6551689414728367E-1 1.7986761174505078E-1
-3.372481551800424E-1 2.1013379858996573E-1
-3.0686811730387453E-1 2.3675680162316012E-1
-2.7479353963646236E-1 2.5963884508579677E-1
-2.4143837572701915E-1 2.787255792247757E-1
-2.0720963250097962E-1 2.9400452230068835E-1
-1.7250350350656596E-1 3.0550314604274953E-1
-1.377018029853279E-1 3.132866418619162E-1
1.0000000000008875 4.836242034107893E-12
9.704716239789645E-1 -9.733848140146574E-2
9.323393357797175E-1 -1.8892767428225857E-1
8.864167544771373E-1 -2.7409993997834814E-1
8.335584741706737E-1 -3.522865716177737E-1
7.746492256170506E-1 -4.230188594446613E-1
7.105932536705422E-1 -4.859280689405672E-1
6.423040099395746E-1 -5.407443849629402E-1
5.706942519698648E-1 -5.872948832708861E-1
4.966666315735085E-1 -6.255005977278727E-1
4.2110484594485814E-1 -6.55372757787661E-1
3.4486541572755064E-1 -6.770082756071707E-1
2.6877014463075927E-1 -6.905845661387466E-1
1.9359930551139248E-1 -6.963537863954913E-1
1.2008558816741494E-1 -6.946365818588663E-1
4.890883447104848E-2 -6.858154288746976E-1
-1.9308422892172817E-2 -6.703276616321477E-1
-8.400461087380416E-2 -6.486582713740191E-1
-1.4468195730027228E-1 -6.213325634640966E-1
-2.0090853277963852E-1 -5.889087553253798E-1
-2.523195109839478E-1 -5.519705947800373E-1
-2.986176722567888E-1 -5.111200742463159E-1
-3.3957318222255656E-1 -4.669703115528557E-1
-3.7502268304114217E-1 -4.201386630634637E-1
-4.048677402930129E-1 -3.712401290852827E-1
-4.2907269312075463E-1 -3.2088110562094735E-1
-4.476619591711183E-1 -2.6965353035264855E-1
-4.607168490021396E-1 -2.1812946420423437E-1
-4.6837194705275875E-1 -1.6685614344436403E-1
-4.7081111802566444E-1 -1.1635153051299367E-1
-4.6826319842839104E-1 -6.710038529207021E-2
-4.609974334346947E-1 -1.9550872071783573E-2
-4.493187188627686E-1 2.5888288890961144E-2
-4.335627070922064E-1 6.885012241379874E-2
-4.1409083429008714E-1 1.0901115503749109E-1
-3.912853242835253E-1 1.460926357664037E-1
-3.6554422192260405E-1 1.79861234574975E-1
-3.3727650585021135E-1 2.1012923703615446E-1
-3.068973273247452E-1 2.3675425779049802E-1
-2.74823418145736E-1 2.5963849941458444E-1
-2.4146870685166272E-1 2.787275866344271E-1
-2.07240178286767E-1 2.940090087680428E-1
-1.725340073980293E-1 3.0551020569945303E-1
1.0000000000008875 4.836242034107893E-12
9.704710795491304E-1 -9.733821157379074E-2
9.323382503663475E-1 -1.8892713183461432E-1
8.864151353762114E-1 -2.740991433805511E-1
8.335563321576862E-1 -3.5228555987121724E-1
7.746465745004744E-1 -4.230176907729015E-1
7.105901097713048E-1 -4.859268189602519E-1
6.423003914673036E-1 -5.407431443768601E-1
5.706901782784644E-1 -5.872937551452874E-1
4.966621222729913E-1 -6.25499694443443E-1
4.210999198562349E-1 -6.553721977385975E-1
3.4486008966766535E-1 -6.770081797395041E-1
2.6876443203964273E-1 -6.905850544215738E-1
1.935932149486327E-1 -6.963549743067535E-1
1.2007912171946585E-1 -6.946385769723278E-1
4.8901986142819945E-2 -6.858183276100329E-1
-1.9315668703417506E-2 -6.703315462377034E-1
-8.401228071437222E-2 -6.486632071862457E-1
-1.4469008968693228E-1 -6.213385964754843E-1
-2.009171787876139E-1 -5.889159100948903E-1
-2.523287342876532E-1 -5.519788726973262E-1
-2.986275485283069E-1 -5.111294521714679E-1
-3.395837978314421E-1 -4.669807408556887E-1
-3.750341330347389E-1 -4.2015006907836905E-1
-4.0488012568715653E-1 -3.712524110067333E-1
-4.2908611757734205E-1 -3.208941368779782E-1
-4.476765251757561E-1 -2.6966715948278963E-1
-4.60732653689376E-1 -2.181435162634408E-1
-4.683890778539111E-1 -1.6687042195964027E-1
-4.7082964831385027E-1 -1.163658199835545E-1
-4.6828318334508057E-1 -6.71144542213932E-2
-4.6101890606776025E-1 -1.9564476484726815E-2
-4.493416869136784E-1 2.587540148332886E-2
-4.33587150161733E-1 6.883820869383322E-2
-4.141167018719001E-1 1.0900047129530775E-1
-3.9131253453205583E-1 1.4608343315411865E-1
-3.655726612228069E-1 1.7985375430439232E-1
-3.3730602919934627E-1 2.101237056411148E-1
-3.069277595105364E-1 2.3675088257306673E-1
-2.748545556756996E-1 2.596374641723155E-1
-2.415003205805678E-1 2.787290477785922E-1
-2.07272016665826E-1 2.940130919103922E-1
1.0000000000008875 4.836242034107893E-12
9.704705350349251E-1 -9.733794178827686E-2
9.323371650255172E-1 -1.8892660562712535E-1
8.864135167498378E-1 -2.740983950332088E-1
8.33554191415285E-1 -3.522846435619604E-1
7.746439261152559E-1 -4.230166789923082E-1
7.105869710770149E-1 -4.859258004150241E-1
6.422967820715156E-1 -5.407422214557998E-1
5.706861193014389E-1 -5.872930410033591E-1
4.9665763538496094E-1 -6.25499309791165E-1
4.210950260961062E-1 -6.553722674275652E-1
3.448548080424819E-1 -6.770088292337357E-1
2.6875877791396696E-1 -6.905864062455012E-1
1.9358719827098042E-1 -6.963571445524108E-1
1.200727451435159E-1 -6.946416719487196E-1
4.889524314285256E-2 -6.858224406967167E-1
-1.9322795607523327E-2 -6.703367549885063E-1
-8.401982148784827E-2 -6.486695707249105E-1
-1.4469808791812672E-1 -6.21346153209891E-1
-2.009256922947913E-1 -5.88924675762774E-1
-2.5233783506360324E-1 -5.519888387607637E-1
-2.9863732193656745E-1 -5.11140584571987E-1
-3.395943410009522E-1 -4.669929791467432E-1
-3.750455524456931E-1 -4.201633259722203E-1
-4.048925340059202E-1 -3.712665723617279E-1
-4.2909962984574435E-1 -3.209090621692287E-1
-4.4769125450140534E-1 -2.69682682793005E-1
-4.607487066104007E-1 -2.1815944783063101E-1
-4.684065495821042E-1 -1.668865502994719E-1
-4.7084861805300005E-1 -1.1638191458219008E-1
-4.683037098739162E-1 -6.713026878696801E-2
-4.610410237685978E-1 -1.9579752709634822E-2
-4.4936540238690476E-1 2.5860929715969403E-2
-4.336124395466521E-1 6.882481074723762E-2
-4.141435089517862E-1 1.0898841495678442E-1
-3.913407696822906E-1 1.4607297967527064E-1
-3.6560220122095394E-1 1.7984515341924537E-1
-3.3733671788506286E-1 2.1011719068157578E-1
-3.069594092746625E-1 2.3674666580501347E-1
-2.74886949717209E-1 2.5963573246105254E-1
-2.4153321586884982E-1 2.787299586800621E-1
1.0000000000008875 4.836242034107893E-12
9.704699905814174E-1 -9.733768015769967E-2
9.323360801778983E-1 -1.8892611178634755E-1
8.864118996494825E-1 -2.740977188722965E-1
8.335520541801258E-1 -3.522838541163191E-1
7.746412846115753E-1 -4.230158625872649E-1
7.1058384452343E-1 -4.8592505832462735E-1
6.422931924449208E-1 -5.40741667139859E-1
5.706820905079646E-1 -5.872927970092089E-1
4.966531921677721E-1 -6.25499504404192E-1
4.210901926586409E-1 -6.553730311582885E-1
3.448496063969241E-1 -6.770102912448339E-1
2.687532259759716E-1 -6.905886907993334E-1
1.9358130775882115E-1 -6.963603675707434E-1
1.2006651936985076E-1 -6.946459377514498E-1
4.888867481670753E-2 -6.858278389708884E-1
-1.9329726417084914E-2 -6.703433580380534E-1
-8.40271490709098E-2 -6.48677431011658E-1
-1.447058621473793E-1 -6.213553012107557E-1
-2.00933979196643E-1 -5.889351181501274E-1
-2.523467166071283E-1 -5.520005569007858E-1
-2.986468949427316E-1 -5.111535333721807E-1
-3.3960471513998636E-1 -4.670070862637421E-1
-3.7505684734206185E-1 -4.2017849142006714E-1
-4.04904875540094E-1 -3.712826685666578E-1
-4.291131457872958E-1 -3.209259345243416E-1
-4.4770606965957815E-1 -2.69700150760655E-1
-4.607649377165535E-1 -2.1817730662553866E-1
-4.6842430011683467E-1 -1.6690457318931454E-1
-4.708679732427534E-1 -1.1639985579473655E-1
-4.683247320575249E-1 -6.714786699993659E-2
-4.61063748314897E-1 -1.959673506473444E-2
-4.4938983429544743E-1 2.5844843138432726E-2
-4.3363855084350633E-1 6.880990210132619E-2
-4.141712369590437E-1 1.0897496357237935E-1
-3.913700161870304E-1 1.4606125687476357E-1
-3.656328325595784E-1 1.7983541734745445E-1
-3.3736856592076936E-1 2.1010968128049487E-1
-3.069922732243717E-1 2.3674160004740796E-1
-2.749205987579268E-1 2.596332999577333E-1
1.0000000000008875 4.836242034107893E-12
9.704694464281765E-1 -9.733743477554646E-2
9.323349966227112E-1 -1.8892566636475516E-1
8.864102859644694E-1 -2.7409713865396973E-1
8.33549924159149E-1 -3.5228322263302353E-1
7.746386564001748E-1 -4.230152795278848E-1
7.105807402321805E-1 -4.859246369517814E-1
6.422896375025925E-1 -5.407415313193337E-1
5.706781127090903E-1 -5.872930779380992E-1
4.9664882038645974E-1 -6.255003371389662E-1
4.2108545521435076E-1 -6.553745510299966E-1
3.448445290852084E-1 -6.770126302655634E-1
2.6874782980432965E-1 -6.905919741431207E-1
1.9357560646032385E-1 -6.963647102074572E-1
1.2006051682108766E-1 -6.946514413064516E-1
4.888236250242148E-2 -6.858345888390603E-1
-1.9336371714490378E-2 -6.70351420783635E-1
-8.403416715498091E-2 -6.486868520695341E-1
-1.4471331067789475E-1 -6.213661028773529E-1
-2.0094193416094977E-1 -5.889472978782024E-1
-2.523552718611415E-1 -5.520140858886281E-1
-2.986561607417711E-1 -5.111683554625479E-1
-3.3961481563837503E-1 -4.670231171949798E-1
-3.75067917120117E-1 -4.201956184708084E-1
-4.049170552865149E-1 -3.713007506567707E-1
-4.2912657731905085E-1 -3.2094480283345767E-1
-4.477208904914373E-1 -2.6971960994055144E-1
-4.6078127543751163E-1 -2.1819713663351964E-1
-4.684422668081174E-1 -1.669245317777153E-1
-4.7088766017654876E-1 -1.1641968164977898E-1
-4.68346204883947E-1 -6.716728349214163E-2
-4.610870429055631E-1 -1.9615454549364402E-2
-4.4941495338630577E-1 2.582711457045004E-2
-4.3366546155634966E-1 6.879345951689153E-2
-4.141998692769035E-1 1.0896009787928913E-1
-3.9140026239457354E-1 1.46048249416542E-1
-3.6566454764073597E-1 1.798245345510252E-1
-3.374015688837505E-1 2.1010116948467727E-1
-3.070263492948344E-1 2.36735680641518E-1
1.0000000000008875 4.836242034107893E-12
9.704689030034821E-1 -9.73372136937198E-2
9.323339157246158E-1 -1.8892528529055783E-1
8.864086787077391E-1 -2.7409667788606334E-1
8.335478069043958E-1 -3.522827797825049E-1
7.746360506110354E-1 -4.2301496712251163E-1
7.105776720514556E-1 -4.859245796124397E-1
6.422861369970346E-1 -5.407418625911828E-1
5.70674212734492E-1 -5.87293936869569E-1
4.966445550407981E-1 -6.255018647048587E-1
4.210808578744255E-1 -6.553768865036976E-1
3.4483963004688956E-1 -6.770159076322722E-1
2.6874265359152705E-1 -6.905963186501922E-1
1.9357016890236936E-1 -6.963702351145851E-1
1.2005482204684426E-1 -6.946582448800743E-1
4.8876400047328725E-2 -6.858427516410368E-1
-1.9342629483766874E-2 -6.703610032398312E-1
-8.404076706256022E-2 -6.486978923222133E-1
-1.4472031998505816E-1 -6.21378614909465E-1
-2.009494408590664E-1 -5.889612698863395E-1
-2.523633838627613E-1 -5.520294789261599E-1
-2.986650039127955E-1 -5.111851023619117E-1
-3.396245306917127E-1 -4.6704112181818463E-1
-3.7507865546666375E-1 -4.202147553543428E-1
-4.049289740155056E-1 -3.71320865138795E-1
-4.2913983354279184E-1 -3.209657117349962E-1
-4.477356353090232E-1 -2.697411028816562E-1
-4.6079764779891375E-1 -2.1821897803338897E-1
-4.684603875447193E-1 -1.6694646355557013E-1
-4.7090762643228706E-1 -1.1644142662655918E-1
-4.683680851720736E-1 -6.718854942498993E-2
-4.6111087293676795E-1 -1.9635938740873056E-2
-4.4944073280052294E-1 2.580772021198849E-2
-4.336931516348749E-1 6.877546308837848E-2
-4.1422939167065953E-1 1.0894380189530375E-1
-3.9143149887730705E-1 1.4603394517613774E-1
-3.656973408599357E-1 1.7981249660068183E-1
-3.374357240684971E-1 2.100916503185781E-1
1.0000000000008875 4.836242034107893E-12
9.704683610206649E-1 -9.733702490281035E-2
9.323328396014969E-1 -1.88924984319482E-1
8.864070822946406E-1 -2.740963597430416E-1
8.335457101885784E-1 -3.522825556881771E-1
7.746334795601711E-1 -4.230149618536872E-1
7.10574658106053E-1 -4.8592492845319735E-1
6.42282716146099E-1 -5.407427079794271E-1
5.706704241288981E-1 -5.872954248425885E-1
4.9664043911237565E-1 -6.255041412485437E-1
4.2107645396559185E-1 -6.553800939124464E-1
3.4483497358577336E-1 -6.770201809720809E-1
2.6873777289853323E-1 -6.906017824055628E-1
1.935650817752627E-1 -6.963770000936239E-1
1.2004953230116433E-1 -6.946664053933541E-1
4.887089424398491E-2 -6.858523829675766E-1
-1.934838485532229E-2 -6.703721593799806E-1
-8.404682769241452E-2 -6.487106039928738E-1
-1.4472676489033015E-1 -6.213928877710524E-1
-2.0095637237782724E-1 -5.889770829724347E-1
-2.523709263771362E-1 -5.520467832832664E-1
-2.986733012570643E-1 -5.112038199454233E-1
-3.3963374231364285E-1 -4.6706114470275767E-1
-3.7508895149981264E-1 -4.202359453483017E-1
-4.04940529484244E-1 -3.713430539140503E-1
-4.2915282198539956E-1 -3.2098870156867926E-1
-4.4775022212041493E-1 -2.6976466809046856E-1
-4.6081398359397346E-1 -2.1824286716107327E-1
-4.684786018334644E-1 -1.6697040231943489E-1
-4.709278218401037E-1 -1.1646512160782056E-1
-4.6839033241817707E-1 -6.72116924276829E-2
-4.6113520671609737E-1 -1.9658211729989047E-2
-4.4946714866539705E-1 2.5786639719480517E-2
-4.337216039488717E-1 6.875589632802864E-2
-4.1425979264722207E-1 1.0892606299673849E-1
-3.914637186893308E-1 1.4601833530328004E-1
-3.657312087798221E-1 1.797992982350233E-1
1.0000000000008875 4.836242034107893E-12
9.704678215739777E-1 -9.733687630942031E-2
9.323317713218252E-1 -1.8892477898608676E-1
8.864055028354233E-1 -2.740962069793965E-1
8.335436443880133E-1 -3.5228257978935856E-1
7.746309592245795E-1 -4.2301529918898356E-1
7.10571721359182E-1 -4.8592572419995966E-1
6.422794062716817E-1 -5.407441126068426E-1
5.706667878554548E-1 -5.872975904490287E-1
4.966365243167759E-1 -6.255072178676262E-1
4.210723068081533E-1 -6.553842258989218E-1
3.4483063513924317E-1 -6.770255035583618E-1
2.68733275385045E-1 -6.906084185020888E-1
1.9356044459208568E-1 -6.963850573720884E-1
1.2004475807786047E-1 -6.946759736857079E-1
4.886596519920552E-2 -6.858635319402505E-1
-1.9353509943225343E-2 -6.703849364583203E-1
-8.405221559744448E-2 -6.487250324929824E-1
-1.447325088824111E-1 -6.214089651824657E-1
-2.0096259179102427E-1 -5.889947793895546E-1
-2.523777647076973E-1 -5.520660399948454E-1
-2.9868092280849334E-1 -5.112245482413913E-1
-3.3964232750189594E-1 -4.670832249946143E-1
-3.750986910424394E-1 -4.202592267251228E-1
-4.049516177659978E-1 -3.713673542643249E-1
-4.291654499287032E-1 -3.210138083851879E-1
-4.4776456991013236E-1 -2.6979034004728353E-1
-4.6083021357614495E-1 -2.1826883652033827E-1
-4.684968518819352E-1 -1.6699637816339535E-1
-4.709481994342117E-1 -1.1649079385394058E-1
-4.684129096128096E-1 -6.72367365483645E-2
-4.6116001614071406E-1 -1.968229405329818E-2
-4.494941806303465E-1 2.57638562740598E-2
-4.3375080469777344E-1 6.873474623442519E-2
-4.14291063752447E-1 1.0890687198591431E-1
-3.914969175611348E-1 1.4600141427631688E-1
1.0000000000008875 4.836242034107893E-12
9.704672862330986E-1 -9.733677570298019E-2
9.32330715092757E-1 -1.8892468453503533E-1
8.864039484239692E-1 -2.7409624182069703E-1
8.335416228713199E-1 -3.522828806826239E-1
7.746285097254996E-1 -4.230160133565577E-1
7.105688901866054E-1 -4.859270058618506E-1
6.422762454545822E-1 -5.407461193191633E-1
5.706633530165319E-1 -5.873004793677711E-1
4.9663287186971644E-1 -6.255111420543212E-1
4.210684905047082E-1 -6.553893307778896E-1
3.448267020583604E-1 -6.770319236119535E-1
2.687292615265645E-1 -6.906162742772086E-1
1.9355637029632144E-1 -6.963944528006778E-1
1.2004062356922517E-1 -6.946869937190092E-1
4.886174659287813E-2 -6.858762404503739E-1
-1.935786381973961E-2 -6.703993743266168E-1
-8.405678522520203E-2 -6.487412158347265E-1
-1.4473740464177337E-1 -6.214268836411138E-1
-2.0096795294639128E-1 -5.890143944965612E-1
-2.5238375672080116E-1 -5.520872836350558E-1
-2.986877330561041E-1 -5.11247321309333E-1
-3.396501595984212E-1 -4.6710739637977716E-1
-3.751077580569485E-1 -4.20284632779941E-1
-4.0496213469771064E-1 -3.713937989137358E-1
-4.291776258170719E-1 -3.2104106401758387E-1
-4.4777859996436525E-1 -2.6981814926947856E-1
-4.608462716647793E-1 -2.182969148247108E-1
-4.6851508366245803E-1 -1.6702441749296926E-1
-4.7096871636101856E-1 -1.1651846699160934E-1
-4.684357839835016E-1 -6.726370222931552E-2
-4.6118527728984077E-1 -1.970820265401474E-2
-4.4952181232084204E-1 2.5739356631504604E-2
-4.337807437331568E-1 6.871200334014342E-2
-4.143231997809667E-1 1.0888622312855809E-1
1.0000000000008875 4.836242034107893E-12
9.704667571454441E-1 -9.733673073090952E-2
9.323296764634521E-1 -1.889247158559922E-1
8.864024294384016E-1 -2.7409648584489565E-1
8.335396623997412E-1 -3.5228348593687E-1
7.746261558259291E-1 -4.2301713708609295E-1
7.105661989663316E-1 -4.859288103828007E-1
6.422732792112152E-1 -5.407487682453289E-1
5.706601776038791E-1 -5.873041338322824E-1
4.9662955328350944E-1 -6.255159570636691E-1
4.21065090743794E-1 -6.553954518036506E-1
3.448232743825827E-1 -6.770394834907597E-1
2.6872584532218297E-1 -6.906253904692569E-1
1.9355298584174077E-1 -6.964052249959661E-1
1.2003726706130471E-1 -6.946995017443741E-1
4.8858385838910036E-2 -6.858905423921744E-1
-1.9361292634931755E-2 -6.704155047620588E-1
-8.406037932968984E-2 -6.487591840927567E-1
-1.4474129474911537E-1 -6.214466720296405E-1
-2.0097230145922076E-1 -5.89035956507482E-1
-2.523887540732521E-1 -5.521105422008835E-1
-2.986935923475132E-1 -5.112721672392123E-1
-3.396571098067617E-1 -4.671336871606768E-1
-3.7511603620835865E-1 -4.2031219194712593E-1
-4.0497197742017976E-1 -3.714224161640903E-1
-4.2918926071505314E-1 -3.2107049621153066E-1
-4.4779223720493316E-1 -2.698481224169372E-1
-4.6086209612671003E-1 -2.1832712707230054E-1
-4.68533247921444E-1 -1.6705454307163195E-1
-4.7098933471825755E-1 -1.1654816102687653E-1
-4.684589276716635E-1 -6.729260628730357E-2
-4.612109709385251E-1 -1.9735950848276874E-2
-4.495500317063829E-1 2.571313116119711E-2
-4.338114148013042E-1 6.868766174964232E-2
1.0000000000008875 4.836242034107893E-12
9.704662371298601E-1 -9.733674885681184E-2
9.32328662522852E-1 -1.8892488739284602E-1
8.864009588474014E-1 -2.740969598349912E-1
8.335377835390323E-1 -3.5228442187614295E-1
7.746239274482181E-1 -4.2301870130737407E-1
7.1056368869513E-1 -4.859311722461564E-1
6.422705611917899E-1 -5.407520962846688E-1
5.706573292589342E-1 -5.873085919977198E-1
4.9662665117241733E-1 -6.255217011785739E-1
4.2106220561936053E-1 -6.55402626351876E-1
3.448204656159436E-1 -6.770482187960274E-1
2.6872315496670346E-1 -6.906358002758697E-1
1.9355043270423422E-1 -6.964174044068875E-1
1.200348412208622E-1 -6.947135254179735E-1
4.885604409738751E-2 -6.859064628770916E-1
-1.9363629915910452E-2 -6.70433350820884E-1
-8.40628296068604E-2 -6.487789589181223E-1
-1.4474401263859132E-1 -6.214683513048528E-1
-2.0097547594646234E-1 -5.890594863490731E-1
-2.523926036780113E-1 -5.521358371091036E-1
-2.986983585106974E-1 -5.112991082486691E-1
-3.3966304888414567E-1 -4.6716212042804256E-1
-3.7512341054557635E-1 -4.2034192801181364E-1
-4.049810459904818E-1 -3.714532301007063E-1
-4.2920026979797427E-1 -3.211021288043165E-1
-4.4780541151350567E-1 -2.698802824353397E-1
-4.6087763071520893E-1 -2.1835949464418203E-1
-4.6855130112768295E-1 -1.6708677407230924E-1
-4.7101002230855393E-1 -1.165798923646428E-1
-4.684823183030867E-1 -6.732346191346059E-2
-4.61237082971436E-1 -1.9765548303547407E-2
-4.4957883137210514E-1 2.568517387660324E-2
1.0000000000008875 4.836242034107893E-12
9.70465729783221E-1 -9.733683732198217E-2
9.323276821089869E-1 -1.8892521305097762E-1
8.8639955252778E-1 -2.740976836135589E-1
8.335360110903488E-1 -3.5228571333016007E-1
7.746218602137713E-1 -4.2302073479552643E-1
7.105614076334776E-1 -4.859341230029327E-1
6.422681539270986E-1 -5.407561365278621E-1
5.706548860966939E-1 -5.873138872424029E-1
4.966242601109857E-1 -6.255284068849266E-1
4.2105994647705963E-1 -6.554108849883278E-1
3.44818403512672E-1 -6.770581573806117E-1
2.6872133350806393E-1 -6.906475283449115E-1
1.9354886733637267E-1 -6.964310123327037E-1
1.2003351328141125E-1 -6.947290829079227E-1
4.885489612968297E-2 -6.859240174774417E-1
-1.9364697072727248E-2 -6.704529262592464E-1
-8.406395756276501E-2 -6.488005531596281E-1
-1.4474538380843416E-1 -6.214919343177697E-1
-2.0097730951903553E-1 -5.890849976579001E-1
-2.52395149395536E-1 -5.521631833424451E-1
-2.987018886562258E-1 -5.113281609352498E-1
-3.3966784897324875E-1 -4.6719271435305665E-1
-3.751297692805716E-1 -4.203738604051657E-1
-4.049892450304854E-1 -3.714862608696141E-1
-4.292105738252185E-1 -3.21135981957804E-1
-4.4781805900699634E-1 -2.699146487292364E-1
-4.6089282573226636E-1 -2.1839403541805533E-1
-4.6856920631898225E-1 -1.671211261438688E-1
-4.710307532890817E-1 -1.166136738317665E-1
-4.685059394538017E-1 -6.735627866780317E-2
-4.6126360468208816E-1 -1.9797001028443287E-2
1.0000000000008875 4.836242034107893E-12
9.704652395848181E-1 -9.733700309558285E-2
9.323267460271878E-1 -1.889257060837938E-1
8.863982295947173E-1 -2.740986758459897E-1
8.335343745350574E-1 -3.522873833328336E-1
7.74619996010062E-1 -4.230232637613438E-1
7.10559411985234E-1 -4.8593769072836496E-1
6.422661295993578E-1 -5.407609175588144E-1
5.706529375514596E-1 -5.873200473313046E-1
4.9662248752132526E-1 -6.255360999150157E-1
4.210584387868296E-1 -6.554202504205333E-1
3.448172308592973E-1 -6.770693182415951E-1
2.687205394635328E-1 -6.906605896713202E-1
1.9354846153399646E-1 -6.964460598927751E-1
1.2003346508293336E-1 -6.947461819956464E-1
4.885512996378048E-2 -6.859432115213636E-1
-1.9364304138244193E-2 -6.704742350568025E-1
-8.40635756465721E-2 -6.48823970628675E-1
-1.447452272981695E-1 -6.215174258027943E-1
-2.0097763152895307E-1 -5.89112496957962E-1
-2.5239623395581884E-1 -5.521925897521317E-1
-2.9870404116718346E-1 -5.113593366497569E-1
-3.396713855511402E-1 -4.6722548259320706E-1
-3.751350056203694E-1 -4.204080045852053E-1
-4.049964853858121E-1 -3.715215250008054E-1
-4.292201005826443E-1 -3.211720724109943E-1
-4.4783012323859045E-1 -2.6995123734806203E-1
-4.609076389902143E-1 -2.1843076389121774E-1
-4.685869338389031E-1 -1.6715761147679675E-1
-4.7105150869637147E-1 -1.1664951470710973E-1
-4.685297809946211E-1 -6.73910624836344E-2
1.0000000000008875 4.836242034107893E-12
9.704647720030525E-1 -9.73372528128463E-2
9.323258672721397E-1 -1.8892637895391567E-1
8.863970127530897E-1 -2.7409995381194624E-1
8.33532908517228E-1 -3.5228945277818824E-1
7.746183835980727E-1 -4.230263113596216E-1
7.105577666325423E-1 -4.8594189938819277E-1
6.422645708893245E-1 -5.407664626687981E-1
5.706515852988789E-1 -5.873270934739964E-1
4.9662145461883944E-1 -6.25544798169364E-1
4.210578230474817E-1 -6.554307363204332E-1
3.4481710625845097E-1 -6.770817103131459E-1
2.6872094738006913E-1 -6.906749884197614E-1
1.9354940268634824E-1 -6.964625469655057E-1
1.2003489293167248E-1 -6.947648192102045E-1
4.885694630810858E-2 -6.859640394727404E-1
-1.936225080753783E-2 -6.704972710736051E-1
-8.406148871157094E-2 -6.488492060270852E-1
-1.447433574919211E-1 -6.215448225470768E-1
-2.0097626960792414E-1 -5.891419840145482E-1
-2.5239570111011833E-1 -5.522240595351284E-1
-2.987046778507321E-1 -5.113926420160091E-1
-3.3967353947955775E-1 -4.672604347926459E-1
-3.7513901963004714E-1 -4.204443724840066E-1
-4.050026857462732E-1 -3.7155903577574834E-1
-4.2922878623617444E-1 -3.2121041375967674E-1
-4.478415562854487E-1 -2.699900611735167E-1
-4.6092203663909476E-1 -2.1846969129665803E-1
-4.6860446192979155E-1 -1.6719623886334625E-1
-4.710722768358134E-1 -1.1668742073754455E-1
1.0000000000008875 4.836242034107893E-12
9.704643336132494E-1 -9.733759271225688E-2
9.32325061269225E-1 -1.8892724318060233E-1
8.863959286679169E-1 -2.741015331329502E-1
8.335316533571272E-1 -3.5229194001588454E-1
7.746170792730039E-1 -4.23029897130927E-1
7.105565459287017E-1 -4.859467680933852E-1
6.422635718867187E-1 -5.407727889315209E-1
5.706509442476086E-1 -5.873350392282172E-1
4.966212974280667E-1 -6.255545104872675E-1
4.2105825573511857E-1 -6.554423460079593E-1
3.4481820490792425E-1 -6.770953311372808E-1
2.687227483388521E-1 -6.906907166901145E-1
1.9355189388975486E-1 -6.964804611284212E-1
1.2003800724585681E-1 -6.947849790278137E-1
4.886055768848564E-2 -6.859864844450235E-1
-1.935832779485808E-2 -6.705220178985531E-1
-8.405749580009776E-2 -6.488762451082772E-1
-1.4473958622749755E-1 -6.215741138008316E-1
-2.0097305196710655E-1 -5.891734524070279E-1
-2.5239339797692645E-1 -5.52257590883267E-1
-2.987036661978534E-1 -5.11428079590188E-1
-3.396741990830076E-1 -4.672975771821298E-1
-3.751417200585411E-1 -4.204829730126417E-1
-4.050077741858485E-1 -3.715988036159109E-1
-4.2923657657131653E-1 -3.212510167322938E-1
-4.478523196954068E-1 -2.7003113010031965E-1
-4.609359938475006E-1 -2.1851082570185876E-1
-4.686217771701128E-1 -1.6723701374804043E-1
1.0000000000008875 4.836242034107893E-12
9.704639322151488E-1 -9.733802855204798E-2
9.323243461268846E-1 -1.8892830915110592E-1
8.863950083658342E-1 -2.741034274527222E-1
8.335306556061094E-1 -3.522948603607567E-1
7.746161475818981E-1 -4.230340363276708E-1
7.105558345744867E-1 -4.8595231022946306E-1
6.422632390937217E-1 -5.407799061229037E-1
5.706511436180217E-1 -5.873438892306693E-1
4.9662216785796254E-1 -6.25565235230117E-1
4.2105991028398054E-1 -6.554550709852447E-1
3.4482071935180236E-1 -6.77110165435103E-1
2.687261503420818E-1 -6.907077532323563E-1
1.9355615385922906E-1 -6.964997766372258E-1
1.2004303191040969E-1 -6.948066331964817E-1
4.886618722957584E-2 -6.860105179228617E-1
-1.9352318587362523E-2 -6.705484489514285E-1
-8.405139232564983E-2 -6.489050651023519E-1
-1.4473372525407316E-1 -6.216052819380878E-1
-2.0096780996476699E-1 -5.892068903257994E-1
-2.523891775706704E-1 -5.522931778037585E-1
-2.9870088173975196E-1 -5.114656486195779E-1
-3.396732622331802E-1 -4.673369132324611E-1
-3.751430260989275E-1 -4.2052381257776406E-1
-4.0501168957503464E-1 -3.7164083646814605E-1
-4.292434280713223E-1 -3.212938894486627E-1
-4.478623852547493E-1 -2.700744511938092E-1
-4.609494953013096E-1 -2.1855417209065284E-1
1.0000000000008875 4.836242034107893E-12
9.704635769652474E-1 -9.733856551748774E-2
9.323237429145605E-1 -1.8892958590151934E-1
8.863942876778564E-1 -2.7410564806027427E-1
8.335299686722855E-1 -3.522982255327551E-1
7.74615662129041E-1 -4.230387391253066E-1
7.105557285972115E-1 -4.8595853242835485E-1
6.422636925510866E-1 -5.407878154641861E-1
5.706523281553746E-1 -5.873536377493095E-1
4.96624234895742E-1 -6.255769587001232E-1
4.210629781164798E-1 -6.554688893085767E-1
3.448248602042381E-1 -6.771261835846363E-1
2.687313785741417E-1 -6.907260621671919E-1
1.9356241660425624E-1 -6.965204535146121E-1
1.2005020330035433E-1 -6.948297402718024E-1
4.887406703284827E-2 -6.860360997579019E-1
-1.934400161523237E-2 -6.705765279024468E-1
-8.404297263813629E-2 -6.489356354639789E-1
-1.4472558900726532E-1 -6.216383034029892E-1
-2.009603808953874E-1 -5.89242281583696E-1
-2.52382901429753E-1 -5.523308110993158E-1
-2.986962103974626E-1 -5.115053459074708E-1
-3.396706383469408E-1 -4.673784443534511E-1
-3.751428690052277E-1 -4.205668956023729E-1
-4.0501438281994245E-1 -3.7168514015818016E-1
-4.292493088022438E-1 -3.2133903764177796E-1
-4.4787173556621723E-1 -2.70120028805505E-1
1.0000000000008875 4.836242034107893E-12
9.704632785162094E-1 -9.733920810723379E-2
9.323232759671517E-1 -1.8893108085756632E-1
8.863938077277614E-1 -2.741082034407356E-1
8.33529653510525E-1 -3.5230204297265655E-1
7.746157064855504E-1 -4.230440096884437E-1
7.105563364606309E-1 -4.8596543335874975E-1
6.422650670995715E-1 -5.407965081396555E-1
5.706546594566461E-1 -5.873642669767255E-1
4.9662768587972417E-1 -6.255896533229552E-1
4.2106766969328685E-1 -6.554837637981962E-1
3.448308567783198E-1 -6.771433400120322E-1
2.687386754403951E-1 -6.907455917335094E-1
1.9357093074704226E-1 -6.965424367791572E-1
1.200597688444753E-1 -6.948542454009081E-1
4.888443604903913E-2 -6.860631784939003E-1
-1.9333152922001856E-2 -6.706062094486888E-1
-8.403203302215435E-2 -6.48967918954733E-1
-1.447149977022799E-1 -6.216731499354322E-1
-2.0095061096752576E-1 -5.892796068363055E-1
-2.5237444231848943E-1 -5.523704794562129E-1
-2.9868955079463055E-1 -5.115471667102658E-1
-3.3966625025858854E-1 -4.674221705803485E-1
-3.75141193519848E-1 -4.206122250136387E-1
-4.050158178798011E-1 -3.7173171870265054E-1
-4.292541990701762E-1 -3.213864648285688E-1
1.0000000000008875 4.836242034107893E-12
9.704630491737052E-1 -9.73399600044264E-2
9.323229732263868E-1 -1.889327995230926E-1
8.863936154921515E-1 -2.741110987407077E-1
8.335297794240183E-1 -3.5230631503814064E-1
7.746163752351454E-1 -4.230498450436683E-1
7.105577803477838E-1 -4.859730022794E-1
6.422675138403878E-1 -5.408059635603476E-1
5.706583174917805E-1 -5.873757450781008E-1
4.966327279000161E-1 -6.256032756056186E-1
4.210742155838751E-1 -6.554996401031563E-1
3.448389576000771E-1 -6.771615715746474E-1
2.687483003235029E-1 -6.907662731735422E-1
1.93581958422307E-1 -6.96565655968818E-1
1.2007198507165011E-1 -6.948800805170763E-1
4.889753740293964E-2 -6.860916921632643E-1
-1.9319549335432635E-2 -6.706374405440573E-1
-8.401837508833283E-2 -6.490018731080502E-1
-1.4470178067425618E-1 -6.217097900721115E-1
-2.009383583725134E-1 -5.893188449629616E-1
-2.5236368687327465E-1 -5.524121706158414E-1
-2.9868081641392674E-1 -5.115911056437265E-1
-3.3966003587308935E-1 -4.6746809121853933E-1
-3.751379590557618E-1 -4.2065980265678393E-1
-4.050159725272016E-1 -3.717805745474706E-1
1.0000000000008875 4.836242034107893E-12
9.704629030675914E-1 -9.734082391204192E-2
9.323228666259755E-1 -1.889347451095858E-1
8.863937644358688E-1 -2.7411433511723843E-1
8.335304249900685E-1 -3.523110380268592E-1
7.746177752035898E-1 -4.2305623374250695E-1
7.10560197655847E-1 -4.859812173125981E-1
6.422712018150265E-1 -5.408161473022899E-1
5.706635023147079E-1 -5.87388023916953E-1
4.9663958931803165E-1 -6.256177638479147E-1
4.210828675079113E-1 -6.555164446344809E-1
3.448494307094826E-1 -6.771807959824072E-1
2.6876052894434205E-1 -6.907880198618853E-1
1.9359577361388589E-1 -6.965900250748551E-1
1.2008711500934324E-1 -6.949071650397511E-1
4.891361507909998E-2 -6.8612156959886E-1
-1.930297217057751E-2 -6.706701620977444E-1
-8.400180953348454E-2 -6.490374520542469E-1
-1.4468577990331027E-1 -6.21748190884703E-1
-2.0092349636896112E-1 -5.893599745598174E-1
-2.523505381299661E-1 -5.524558725467151E-1
-2.986699375335711E-1 -5.116371575331661E-1
-3.396519495448628E-1 -4.67516205400358E-1
-3.7513314057989516E-1 -4.2070962961898783E-1
1.0000000000008875 4.836242034107893E-12
9.704628563561212E-1 -9.734180136771572E-2
9.323229925442725E-1 -1.8893691808530183E-1
8.863943152692032E-1 -2.7411790896161253E-1
8.335316791546447E-1 -3.5231620098410016E-1
7.746200269137204E-1 -4.2306315422253765E-1
7.105637427747562E-1 -4.859900433718423E-1
6.422763199777559E-1 -5.408270086673326E-1
5.706704360049945E-1 -5.874010364204999E-1
4.966485213722311E-1 -6.256330355799795E-1
4.2109389927037305E-1 -6.555340824147223E-1
3.4486256359979645E-1 -6.772009103567105E-1
2.687756521254908E-1 -6.908107267846384E-1
1.9361265974709996E-1 -6.966154430013217E-1
1.2010542480679626E-1 -6.949354071988313E-1
4.893290992300291E-2 -6.86152732353686E-1
-1.9283211444560754E-2 -6.707043111634029E-1
-8.398216018365993E-2 -6.490746086774153E-1
-1.4466685359978051E-1 -6.217883198771466E-1
-2.0090591624004275E-1 -5.894029754641401E-1
-2.5233491780416745E-1 -5.525015745538066E-1
-2.9865686284807064E-1 -5.11685318148802E-1
-3.3964196311450134E-1 -4.6756651251642756E-1
1.0000000000008875 4.836242034107893E-12
9.704629274538402E-1 -9.734289251100343E-2
9.323233923324924E-1 -1.8893931562455948E-1
8.863953368474485E-1 -2.741218109373416E-1
8.335336425636568E-1 -3.5232178425926863E-1
7.746232663449604E-1 -4.2307057280484306E-1
7.105685892151951E-1 -4.859994296357096E-1
6.422830795201185E-1 -5.408384777752121E-1
5.706793648905752E-1 -5.874146935591386E-1
4.96659799882625E-1 -6.256489847913652E-1
4.21107607515051E-1 -6.555524349630291E-1
3.448786626909596E-1 -6.772217901400436E-1
2.687939738371001E-1 -6.908342706456758E-1
1.936329064303727E-1 -6.966417948105186E-1
1.2012717952091481E-1 -6.949647061495902E-1
4.895565496616981E-2 -6.861850972927742E-1
-1.9260070514090896E-2 -6.707398235949703E-1
-8.395926819244245E-2 -6.49113297020487E-1
-1.4464487971155648E-1 -6.218301469446981E-1
-2.0088553000216294E-1 -5.894478302048889E-1
-2.523167682111222E-1 -5.525492682585235E-1
-2.986415606966888E-1 -5.117355847780419E-1
1.0000000000008875 4.836242034107893E-12
9.704631373078609E-1 -9.734409579976083E-2
9.323241129571189E-1 -1.8894193093662695E-1
8.863969072659096E-1 -2.7412602478907094E-1
8.335364291843718E-1 -3.5232775769629743E-1
7.74627647095563E-1 -4.230784412325301E-1
7.105749321931136E-1 -4.860093064749751E-1
6.4229171660927E-1 -5.408504620915668E-1
5.706905620086717E-1 -5.874288808595871E-1
4.9667372691237716E-1 -6.256654789627721E-1
4.211243120632597E-1 -6.555713583546462E-1
3.448980520119793E-1 -6.772432885391068E-1
2.688158082025092E-1 -6.908585107884407E-1
1.936568050930408E-1 -6.96668953897957E-1
1.2015263794690029E-1 -6.949949549358344E-1
4.898207008790931E-2 -6.862185798187354E-1
-1.923337102085869E-2 -6.707766370805263E-1
-8.393299622086167E-2 -6.491534748180032E-1
-1.4461975916604045E-1 -6.21873646282326E-1
-2.0086227271346926E-1 -5.894945252822775E-1
-2.5229605373313524E-1 -5.525989483523965E-1
1.0000000000008875 4.836242034107893E-12
9.704635097303872E-1 -9.734540766198056E-2
9.323252077868592E-1 -1.8894475242287745E-1
8.863991152298141E-1 -2.741305258620267E-1
8.335401683368449E-1 -3.523340783712988E-1
7.746333430727542E-1 -4.230866935912717E-1
7.10582991809505E-1 -4.8601958168329684E-1
6.423024956592899E-1 -5.408628423132258E-1
5.707043298569809E-1 -5.874434545039755E-1
4.9669063229112126E-1 -6.256823560529235E-1
4.2114435562853264E-1 -6.555906817244613E-1
3.44921070837216E-1 -6.772652368590816E-1
2.688414752448218E-1 -6.90883291258658E-1
1.936846434336796E-1 -6.966967853139086E-1
1.201820465625877E-1 -6.950260444041787E-1
4.90123562081093E-2 -6.862530977043073E-1
-1.9202957903513906E-2 -6.708146944169239E-1
-8.390323237039356E-2 -6.491951059837684E-1
-1.4459141867143818E-1 -6.219187980727245E-1
-2.0083610424139947E-1 -5.895430521797614E-1
1.0000000000008875 4.836242034107893E-12
9.704640718078077E-1 -9.73468220566508E-2
9.323267375715246E-1 -1.889477626057949E-1
8.864020617706682E-1 -2.7413527919895936E-1
8.335450072633697E-1 -3.5234068771021315E-1
7.74640551867397E-1 -4.23095242418884E-1
7.105930169436777E-1 -4.860301358092271E-1
6.423157131500848E-1 -5.408754674697085E-1
5.707210032933109E-1 -5.874582370311421E-1
4.9671087470142783E-1 -6.256994216879079E-1
4.2116810246980957E-1 -6.556102065959026E-1
3.449480698398249E-1 -6.772874461421111E-1
2.688712950614144E-1 -6.90908444341176E-1
1.937166985445977E-1 -6.967251503630876E-1
1.2021563262606064E-1 -6.950578679523374E-1
4.904668918552113E-2 -6.862885752907747E-1
-1.9168704232164255E-2 -6.708539467719097E-1
-8.386989362704667E-2 -6.492381628584518E-1
-1.4455981288865893E-1 -6.219655898236433E-1
1.0000000000008875 4.836242034107893E-12
9.704648544219856E-1 -9.734832992320558E-2
9.323287717099378E-1 -1.8895093677045396E-1
8.864058624760878E-1 -2.7414023709963437E-1
8.335511144507468E-1 -3.523475077789598E-1
7.746494990761179E-1 -4.23103973762751E-1
7.106052900932628E-1 -4.860408163896344E-1
6.423317020788067E-1 -5.408881491843859E-1
5.707409524188899E-1 -5.874730127914858E-1
4.9673484192740397E-1 -6.257164469361731E-1
4.2119593548283635E-1 -6.556297075785753E-1
3.449794053146316E-1 -6.773097105930332E-1
2.6890558020325167E-1 -6.90933795816195E-1
1.937532287986872E-1 -6.96753912497648E-1
1.2025359676076339E-1 -6.950903269781211E-1
4.908521383899037E-2 -6.863249478236111E-1
-1.9130515493906625E-2 -6.708943566953337E-1
-8.383292855293202E-2 -6.49282628011133E-1
1.0000000000008875 4.836242034107893E-12
9.704658929099902E-1 -9.734991845940993E-2
9.323313898847831E-1 -1.8895424117611181E-1
8.864106504082165E-1 -2.7414533591147877E-1
8.335586839759784E-1 -3.523544364309835E-1
7.746604438466393E-1 -4.2311274082588163E-1
7.106201333317336E-1 -4.860514308217811E-1
6.423508369667088E-1 -5.40900655112223E-1
5.707645850454852E-1 -5.874875235632285E-1
4.967629495837081E-1 -6.257331673646036E-1
4.212282509951344E-1 -6.556489351859323E-1
3.450154309884427E-1 -6.773318133629939E-1
2.6894462617062154E-1 -6.909591721674597E-1
1.937944647344336E-1 -6.967829443473954E-1
1.2029610542529325E-1 -6.951233366414227E-1
4.912803850260683E-2 -6.863621655060657E-1
-1.908833300485728E-2 -6.709359005535388E-1
1.0000000000008875 4.836242034107893E-12
9.704672279387752E-1 -9.735157017694995E-2
9.323346842471839E-1 -1.8895763067418517E-1
8.864165800092298E-1 -2.74150491725549E-1
8.335679412876487E-1 -3.523613408496174E-1
7.746736860763098E-1 -4.231213557274487E-1
7.106379156079172E-1 -4.8606173759964405E-1
6.423735392220835E-1 -5.409127016945335E-1
5.707923480616518E-1 -5.875014649677074E-1
4.967956374022522E-1 -6.25749284338307E-1
4.2126545048385977E-1 -6.556676216452619E-1
3.4505648707611064E-1 -6.773535350867453E-1
2.689887002001297E-1 -6.909844095907481E-1
1.9384059947309734E-1 -6.9681213540946E-1
1.2034328389358157E-1 -6.951568313788057E-1
4.917523063702313E-2 -6.86400196838242E-1
1.0000000000008875 4.836242034107893E-12
9.704689066767078E-1 -9.735326163805078E-2
9.323387623911674E-1 -1.8896104548413656E-1
8.864238324418161E-1 -2.7415559452515026E-1
8.335791509982869E-1 -3.523680488526397E-1
7.746895757565978E-1 -4.231295787877785E-1
7.106590614577257E-1 -4.8607143574431705E-1
6.42400282249532E-1 -5.409239467888435E-1
5.708247264926055E-1 -5.875144848970156E-1
4.9683336173383774E-1 -6.257644699309739E-1
4.2130792835188363E-1 -6.556854906227861E-1
3.451028865169323E-1 -6.773746653666373E-1
2.6903802892644607E-1 -6.910093643603609E-1
1.9389177950230435E-1 -6.968413997049027E-1
1.2039521047541048E-1 -6.951907695759793E-1
1.0000000000008875 4.836242034107893E-12
9.704709844028504E-1 -9.735496171191876E-2
9.323437514923106E-1 -1.8896440668313957E-1
8.864326230377356E-1 -2.7416050001577197E-1
8.335926275638896E-1 -3.5237433701229043E-1
7.747085251181198E-1 -4.231371046134916E-1
7.106840610196369E-1 -4.8608015250836556E-1
6.424315951633884E-1 -5.409339833562565E-1
5.708622384884335E-1 -5.875261858587428E-1
4.9687658278652774E-1 -6.257783771440587E-1
4.213560552907719E-1 -6.557022715504627E-1
3.4515489897271195E-1 -6.773950167658066E-1
2.6909278603469666E-1 -6.910339235459535E-1
1.9394809686650738E-1 -6.968706823702481E-1
1.0000000000008875 4.836242034107893E-12
9.704735267797775E-1 -9.735662912329271E-2
9.323498042313345E-1 -1.889676097801434E-1
8.864432118972121E-1 -2.7416501798359344E-1
8.336087500097199E-1 -3.523799142036798E-1
7.747310241266623E-1 -4.231435441964489E-1
7.107134804975815E-1 -4.8608743005210825E-1
6.424680628130874E-1 -5.409423364666319E-1
5.709054235909E-1 -5.875361339468428E-1
4.969257450438421E-1 -6.257906570714395E-1
4.2141015739349913E-1 -6.557177184637777E-1
3.452127339272888E-1 -6.774144400257283E-1
2.6915308143887223E-1 -6.910580145797892E-1
1.0000000000008875 4.836242034107893E-12
9.70476613152522E-1 -9.735820887946016E-2
9.323571075086381E-1 -1.8897051524598243E-1
8.864559193601578E-1 -2.741688953358903E-1
8.336279824544066E-1 -3.5238439869936833E-1
7.747576597024137E-1 -4.2314840258086744E-1
7.107479710431509E-1 -4.860927132193266E-1
6.425103184465578E-1 -5.409484676270556E-1
5.709548212405227E-1 -5.875438779034485E-1
4.969812502635169E-1 -6.258009839844084E-1
4.214704926641336E-1 -6.557316319333731E-1
3.4527652526245156E-1 -6.774328382936367E-1
1.0000000000008875 4.836242034107893E-12
9.704803415033452E-1 -9.735962691042928E-2
9.323658956626578E-1 -1.8897293410601237E-1
8.864711490064514E-1 -2.741717907680645E-1
8.33650902524518E-1 -3.523872862537937E-1
7.747891377947057E-1 -4.231510527125982E-1
7.107882714495115E-1 -4.860953431147958E-1
6.425590233023466E-1 -5.409517924351714E-1
5.710109366393136E-1 -5.875489814095592E-1
4.970434242738255E-1 -6.25809087179409E-1
4.215372282468643E-1 -6.557438807367302E-1
1.0000000000008875 4.836242034107893E-12
9.70484836192916E-1 -9.736078168949938E-2
9.323764712903259E-1 -1.8897460524968374E-1
8.864894226430399E-1 -2.7417323620974954E-1
8.336782400397696E-1 -3.523879064957029E-1
7.748263047071079E-1 -4.2315070919981046E-1
7.108351961372771E-1 -4.860945656754077E-1
6.426148262311251E-1 -5.409517192648535E-1
5.710741936957865E-1 -5.875510693916352E-1
4.9711248231641286E-1 -6.258147850201821E-1
1.0000000000008875 4.836242034107893E-12
9.704902605911997E-1 -9.736153049515478E-2
9.323892392795263E-1 -1.889751581770596E-1
8.865114341595408E-1 -2.741725771888897E-1
8.337109267097247E-1 -3.5238536629326483E-1
7.748701574972148E-1 -4.2314641260265873E-1
7.10889594434937E-1 -4.860895703094126E-1
6.426782978776785E-1 -5.409477151913016E-1
5.711448804745218E-1 -5.875498828898151E-1
1.0000000000008875 4.836242034107893E-12
9.704968388900859E-1 -9.736166563941376E-2
9.324047648974246E-1 -1.8897404924035585E-1
8.865381325315944E-1 -2.7416888057899325E-1
8.337501513156762E-1 -3.523784856889379E-1
7.749218210421948E-1 -4.231370485418949E-1
7.109522636859772E-1 -4.860795780526621E-1
6.427498427358699E-1 -5.409393963452686E-1
1.0000000000008875 4.836242034107893E-12
9.705048963115446E-1 -9.736087046859272E-2
9.324238771356692E-1 -1.8897044776174787E-1
8.865708456772138E-1 -2.741607960942116E-1
8.337973956217312E-1 -3.523657526990376E-1
7.74982450896467E-1 -4.2312144621982667E-1
7.110238064311553E-1 -4.860639906428478E-1
1.0000000000008875 4.836242034107893E-12
9.705149394393568E-1 -9.735863112863266E-2
9.324478592311616E-1 -1.8896302531882572E-1
8.866114455133612E-1 -2.741463699882613E-1
8.338543802545351E-1 -3.5234537404080757E-1
7.75053010038781E-1 -4.230986141924752E-1
1.0000000000008875 4.836242034107893E-12
9.70527832743286E-1 -9.735404194114011E-2
9.324788043204048E-1 -1.8894956083452072E-1
8.866624905186301E-1 -2.741228793033027E-1
8.339227676109173E-1 -3.523155903153272E-1
1.0000000000008875 4.836242034107893E-12
9.705452312051072E-1 -9.734532680609302E-2
9.325202450320046E-1 -1.8892623829072105E-1
8.867270535071755E-1 -2.74087007369536E-1
1.0000000000008875 4.836242034107893E-12
9.705707724982741E-1 -9.73285165799194E-2
9.325779733495523E-1 -1.888867239360341E-1
1.0000000000008875 4.836242034107893E-12
9.706137676229103E-1 -9.729334519581552E-2
1.0000000000008873 4.836205974591767E-12
