%%MatrixMarket matrix coordinate complex general
%
6561 6561 641
1 1 0 0
1 2 0 0
1 3 0 0
2 1 0 0
2 2 4.166666666666667E-3 0
2 3 2.0833333333333333E-3 0
3 1 0 0
3 2 2.0833333333333333E-3 0
3 3 8.333333333333333E-3 0
3 4 0 0
3 6 2.0833333333333333E-3 0
4 3 0 0
4 4 0 0
4 6 0 0
6 3 2.0833333333333333E-3 0
6 4 0 0
6 6 8.333333333333335E-3 0
6 8 0 0
6 10 2.0833333333333337E-3 0
8 6 0 0
8 8 0 0
8 10 0 0
10 6 2.0833333333333337E-3 0
10 8 0 0
10 10 8.333333333333333E-3 0
10 13 0 0
10 15 2.083333333333333E-3 0
13 10 0 0
13 13 0 0
13 15 0 0
15 10 2.083333333333333E-3 0
15 13 0 0
15 15 8.333333333333331E-3 0
15 19 0 0
15 21 2.083333333333333E-3 0
19 15 0 0
19 19 0 0
19 21 0 0
21 15 2.083333333333333E-3 0
21 19 0 0
21 21 8.333333333333335E-3 0
21 26 0 0
21 28 2.083333333333335E-3 0
26 21 0 0
26 26 0 0
26 28 0 0
28 21 2.083333333333335E-3 0
28 26 0 0
28 28 8.333333333333335E-3 0
28 34 0 0
28 36 2.083333333333333E-3 0
34 28 0 0
34 34 0 0
34 36 0 0
36 28 2.083333333333333E-3 0
36 34 0 0
36 36 8.333333333333331E-3 0
36 43 0 0
36 45 2.083333333333333E-3 0
43 36 0 0
43 43 0 0
43 45 0 0
45 36 2.083333333333333E-3 0
45 43 0 0
45 45 8.333333333333331E-3 0
45 53 0 0
45 55 2.083333333333333E-3 0
53 45 0 0
53 53 0 0
53 55 0 0
55 45 2.083333333333333E-3 0
55 53 0 0
55 55 8.333333333333331E-3 0
55 64 0 0
55 66 2.083333333333333E-3 0
64 55 0 0
64 64 0 0
64 66 0 0
66 55 2.083333333333333E-3 0
66 64 0 0
66 66 8.333333333333335E-3 0
66 76 0 0
66 78 2.083333333333335E-3 0
76 66 0 0
76 76 0 0
76 78 0 0
78 66 2.083333333333335E-3 0
78 76 0 0
78 78 8.33333333333334E-3 0
78 89 0 0
78 91 2.083333333333335E-3 0
89 78 0 0
89 89 0 0
89 91 0 0
91 78 2.083333333333335E-3 0
91 89 0 0
91 91 8.333333333333331E-3 0
91 103 0 0
91 105 2.0833333333333303E-3 0
103 91 0 0
103 103 0 0
103 105 0 0
105 91 2.0833333333333303E-3 0
105 103 0 0
105 105 8.333333333333331E-3 0
105 118 0 0
105 120 2.083333333333335E-3 0
118 105 0 0
118 118 0 0
118 120 0 0
120 105 2.083333333333335E-3 0
120 118 0 0
120 120 8.333333333333331E-3 0
120 134 0 0
120 136 2.0833333333333303E-3 0
134 120 0 0
134 134 0 0
134 136 0 0
136 120 2.0833333333333303E-3 0
136 134 0 0
136 136 8.333333333333331E-3 0
136 151 0 0
136 153 2.083333333333335E-3 0
151 136 0 0
151 151 0 0
151 153 0 0
153 136 2.083333333333335E-3 0
153 151 0 0
153 153 8.33333333333334E-3 0
153 169 0 0
153 171 2.083333333333335E-3 0
169 153 0 0
169 169 0 0
169 171 0 0
171 153 2.083333333333335E-3 0
171 169 0 0
171 171 8.333333333333331E-3 0
171 188 0 0
171 190 2.0833333333333303E-3 0
188 171 0 0
188 188 0 0
188 190 0 0
190 171 2.0833333333333303E-3 0
190 188 0 0
190 190 8.333333333333331E-3 0
190 208 0 0
190 210 2.083333333333335E-3 0
208 190 0 0
208 208 0 0
208 210 0 0
210 190 2.083333333333335E-3 0
210 208 0 0
210 210 8.333333333333331E-3 0
210 229 0 0
210 231 2.0833333333333303E-3 0
229 210 0 0
229 229 0 0
229 231 0 0
231 210 2.0833333333333303E-3 0
231 229 0 0
231 231 8.333333333333331E-3 0
231 251 0 0
231 253 2.083333333333335E-3 0
251 231 0 0
251 251 0 0
251 253 0 0
253 231 2.083333333333335E-3 0
253 251 0 0
253 253 8.33333333333334E-3 0
253 274 0 0
253 276 2.083333333333335E-3 0
274 253 0 0
274 274 0 0
274 276 0 0
276 253 2.083333333333335E-3 0
276 274 0 0
276 276 8.33333333333334E-3 0
276 298 0 0
276 300 2.083333333333335E-3 0
298 276 0 0
298 298 0 0
298 300 0 0
300 276 2.083333333333335E-3 0
300 298 0 0
300 300 8.33333333333334E-3 0
300 323 0 0
300 325 2.083333333333335E-3 0
323 300 0 0
323 323 0 0
323 325 0 0
325 300 2.083333333333335E-3 0
325 323 0 0
325 325 8.333333333333321E-3 0
325 349 0 0
325 351 2.083333333333326E-3 0
349 325 0 0
349 349 0 0
349 351 0 0
351 325 2.083333333333326E-3 0
351 349 0 0
351 351 8.333333333333321E-3 0
351 376 0 0
351 378 2.083333333333335E-3 0
376 351 0 0
376 376 0 0
376 378 0 0
378 351 2.083333333333335E-3 0
378 376 0 0
378 378 8.33333333333334E-3 0
378 404 0 0
378 406 2.083333333333335E-3 0
404 378 0 0
404 404 0 0
404 406 0 0
406 378 2.083333333333335E-3 0
406 404 0 0
406 406 8.33333333333334E-3 0
406 433 0 0
406 435 2.083333333333335E-3 0
433 406 0 0
433 433 0 0
433 435 0 0
435 406 2.083333333333335E-3 0
435 433 0 0
435 435 8.33333333333334E-3 0
435 463 0 0
435 465 2.083333333333335E-3 0
463 435 0 0
463 463 0 0
463 465 0 0
465 435 2.083333333333335E-3 0
465 463 0 0
465 465 8.333333333333321E-3 0
465 494 0 0
465 496 2.083333333333326E-3 0
494 465 0 0
494 494 0 0
494 496 0 0
496 465 2.083333333333326E-3 0
496 494 0 0
496 496 8.333333333333321E-3 0
496 526 0 0
496 528 2.083333333333335E-3 0
526 496 0 0
526 526 0 0
526 528 0 0
528 496 2.083333333333335E-3 0
528 526 0 0
528 528 8.33333333333334E-3 0
528 559 0 0
528 561 2.083333333333335E-3 0
559 528 0 0
559 559 0 0
559 561 0 0
561 528 2.083333333333335E-3 0
561 559 0 0
561 561 8.33333333333334E-3 0
561 593 0 0
561 595 2.083333333333335E-3 0
593 561 0 0
593 593 0 0
593 595 0 0
595 561 2.083333333333335E-3 0
595 593 0 0
595 595 8.33333333333334E-3 0
595 628 0 0
595 630 2.083333333333335E-3 0
628 595 0 0
628 628 0 0
628 630 0 0
630 595 2.083333333333335E-3 0
630 628 0 0
630 630 8.333333333333321E-3 0
630 664 0 0
630 666 2.083333333333326E-3 0
664 630 0 0
664 664 0 0
664 666 0 0
666 630 2.083333333333326E-3 0
666 664 0 0
666 666 8.333333333333321E-3 0
666 701 0 0
666 703 2.083333333333335E-3 0
701 666 0 0
701 701 0 0
701 703 0 0
703 666 2.083333333333335E-3 0
703 701 0 0
703 703 8.33333333333334E-3 0
703 739 0 0
703 741 2.083333333333335E-3 0
739 703 0 0
739 739 0 0
739 741 0 0
741 703 2.083333333333335E-3 0
741 739 0 0
741 741 8.33333333333334E-3 0
741 778 0 0
741 780 2.083333333333335E-3 0
778 741 0 0
778 778 0 0
778 780 0 0
780 741 2.083333333333335E-3 0
780 778 0 0
780 780 8.33333333333334E-3 0
780 818 0 0
780 820 2.083333333333335E-3 0
818 780 0 0
818 818 0 0
818 820 0 0
820 780 2.083333333333335E-3 0
820 818 0 0
820 820 8.333333333333321E-3 0
820 859 0 0
820 861 2.083333333333326E-3 0
859 820 0 0
859 859 0 0
859 861 0 0
861 820 2.083333333333326E-3 0
861 859 0 0
861 861 8.33333333333334E-3 0
861 901 0 0
861 903 2.083333333333344E-3 0
901 861 0 0
901 901 0 0
901 903 0 0
903 861 2.083333333333344E-3 0
903 901 0 0
903 903 8.33333333333334E-3 0
903 944 0 0
903 946 2.083333333333326E-3 0
944 903 0 0
944 944 0 0
944 946 0 0
946 903 2.083333333333326E-3 0
946 944 0 0
946 946 8.333333333333304E-3 0
946 988 0 0
946 990 2.083333333333326E-3 0
988 946 0 0
988 988 0 0
988 990 0 0
990 946 2.083333333333326E-3 0
990 988 0 0
990 990 8.33333333333334E-3 0
990 1033 0 0
990 1035 2.083333333333344E-3 0
1033 990 0 0
1033 1033 0 0
1033 1035 0 0
1035 990 2.083333333333344E-3 0
1035 1033 0 0
1035 1035 8.33333333333334E-3 0
1035 1079 0 0
1035 1081 2.083333333333326E-3 0
1079 1035 0 0
1079 1079 0 0
1079 1081 0 0
1081 1035 2.083333333333326E-3 0
1081 1079 0 0
1081 1081 8.33333333333334E-3 0
1081 1126 0 0
1081 1128 2.083333333333344E-3 0
1126 1081 0 0
1126 1126 0 0
1126 1128 0 0
1128 1081 2.083333333333344E-3 0
1128 1126 0 0
1128 1128 8.33333333333334E-3 0
1128 1174 0 0
1128 1176 2.083333333333326E-3 0
1174 1128 0 0
1174 1174 0 0
1174 1176 0 0
1176 1128 2.083333333333326E-3 0
1176 1174 0 0
1176 1176 8.33333333333334E-3 0
1176 1223 0 0
1176 1225 2.083333333333344E-3 0
1223 1176 0 0
1223 1223 0 0
1223 1225 0 0
1225 1176 2.083333333333344E-3 0
1225 1223 0 0
1225 1225 8.33333333333334E-3 0
1225 1273 0 0
1225 1275 2.083333333333326E-3 0
1273 1225 0 0
1273 1273 0 0
1273 1275 0 0
1275 1225 2.083333333333326E-3 0
1275 1273 0 0
1275 1275 8.333333333333304E-3 0
1275 1324 0 0
1275 1326 2.083333333333326E-3 0
1324 1275 0 0
1324 1324 0 0
1324 1326 0 0
1326 1275 2.083333333333326E-3 0
1326 1324 0 0
1326 1326 8.33333333333334E-3 0
1326 1376 0 0
1326 1378 2.083333333333344E-3 0
1376 1326 0 0
1376 1376 0 0
1376 1378 0 0
1378 1326 2.083333333333344E-3 0
1378 1376 0 0
1378 1378 8.33333333333334E-3 0
1378 1429 0 0
1378 1431 2.083333333333326E-3 0
1429 1378 0 0
1429 1429 0 0
1429 1431 0 0
1431 1378 2.083333333333326E-3 0
1431 1429 0 0
1431 1431 8.33333333333334E-3 0
1431 1483 0 0
1431 1485 2.083333333333344E-3 0
1483 1431 0 0
1483 1483 0 0
1483 1485 0 0
1485 1431 2.083333333333344E-3 0
1485 1483 0 0
1485 1485 8.33333333333334E-3 0
1485 1538 0 0
1485 1540 2.083333333333326E-3 0
1538 1485 0 0
1538 1538 0 0
1538 1540 0 0
1540 1485 2.083333333333326E-3 0
1540 1538 0 0
1540 1540 8.333333333333304E-3 0
1540 1594 0 0
1540 1596 2.083333333333326E-3 0
1594 1540 0 0
1594 1594 0 0
1594 1596 0 0
1596 1540 2.083333333333326E-3 0
1596 1594 0 0
1596 1596 8.33333333333334E-3 0
1596 1651 0 0
1596 1653 2.083333333333344E-3 0
1651 1596 0 0
1651 1651 0 0
1651 1653 0 0
1653 1596 2.083333333333344E-3 0
1653 1651 0 0
1653 1653 8.33333333333334E-3 0
1653 1709 0 0
1653 1711 2.083333333333326E-3 0
1709 1653 0 0
1709 1709 0 0
1709 1711 0 0
1711 1653 2.083333333333326E-3 0
1711 1709 0 0
1711 1711 8.33333333333334E-3 0
1711 1768 0 0
1711 1770 2.083333333333344E-3 0
1768 1711 0 0
1768 1768 0 0
1768 1770 0 0
1770 1711 2.083333333333344E-3 0
1770 1768 0 0
1770 1770 8.33333333333334E-3 0
1770 1828 0 0
1770 1830 2.083333333333326E-3 0
1828 1770 0 0
1828 1828 0 0
1828 1830 0 0
1830 1770 2.083333333333326E-3 0
1830 1828 0 0
1830 1830 8.333333333333304E-3 0
1830 1889 0 0
1830 1891 2.083333333333326E-3 0
1889 1830 0 0
1889 1889 0 0
1889 1891 0 0
1891 1830 2.083333333333326E-3 0
1891 1889 0 0
1891 1891 8.33333333333334E-3 0
1891 1951 0 0
1891 1953 2.083333333333344E-3 0
1951 1891 0 0
1951 1951 0 0
1951 1953 0 0
1953 1891 2.083333333333344E-3 0
1953 1951 0 0
1953 1953 8.33333333333334E-3 0
1953 2014 0 0
1953 2016 2.083333333333326E-3 0
2014 1953 0 0
2014 2014 0 0
2014 2016 0 0
2016 1953 2.083333333333326E-3 0
2016 2014 0 0
2016 2016 8.33333333333334E-3 0
2016 2078 0 0
2016 2080 2.083333333333344E-3 0
2078 2016 0 0
2078 2078 0 0
2078 2080 0 0
2080 2016 2.083333333333344E-3 0
2080 2078 0 0
2080 2080 8.33333333333334E-3 0
2080 2143 0 0
2080 2145 2.083333333333326E-3 0
2143 2080 0 0
2143 2143 0 0
2143 2145 0 0
2145 2080 2.083333333333326E-3 0
2145 2143 0 0
2145 2145 8.333333333333304E-3 0
2145 2209 0 0
2145 2211 2.083333333333326E-3 0
2209 2145 0 0
2209 2209 0 0
2209 2211 0 0
2211 2145 2.083333333333326E-3 0
2211 2209 0 0
2211 2211 8.33333333333334E-3 0
2211 2276 0 0
2211 2278 2.083333333333344E-3 0
2276 2211 0 0
2276 2276 0 0
2276 2278 0 0
2278 2211 2.083333333333344E-3 0
2278 2276 0 0
2278 2278 8.33333333333334E-3 0
2278 2344 0 0
2278 2346 2.083333333333326E-3 0
2344 2278 0 0
2344 2344 0 0
2344 2346 0 0
2346 2278 2.083333333333326E-3 0
2346 2344 0 0
2346 2346 8.33333333333334E-3 0
2346 2413 0 0
2346 2415 2.083333333333344E-3 0
2413 2346 0 0
2413 2413 0 0
2413 2415 0 0
2415 2346 2.083333333333344E-3 0
2415 2413 0 0
2415 2415 8.33333333333334E-3 0
2415 2483 0 0
2415 2485 2.083333333333326E-3 0
2483 2415 0 0
2483 2483 0 0
2483 2485 0 0
2485 2415 2.083333333333326E-3 0
2485 2483 0 0
2485 2485 8.333333333333304E-3 0
2485 2554 0 0
2485 2556 2.083333333333326E-3 0
2554 2485 0 0
2554 2554 0 0
2554 2556 0 0
2556 2485 2.083333333333326E-3 0
2556 2554 0 0
2556 2556 8.33333333333334E-3 0
2556 2626 0 0
2556 2628 2.083333333333344E-3 0
2626 2556 0 0
2626 2626 0 0
2626 2628 0 0
2628 2556 2.083333333333344E-3 0
2628 2626 0 0
2628 2628 8.33333333333334E-3 0
2628 2699 0 0
2628 2701 2.083333333333326E-3 0
2699 2628 0 0
2699 2699 0 0
2699 2701 0 0
2701 2628 2.083333333333326E-3 0
2701 2699 0 0
2701 2701 8.33333333333334E-3 0
2701 2773 0 0
2701 2775 2.083333333333344E-3 0
2773 2701 0 0
2773 2773 0 0
2773 2775 0 0
2775 2701 2.083333333333344E-3 0
2775 2773 0 0
2775 2775 8.33333333333334E-3 0
2775 2848 0 0
2775 2850 2.083333333333326E-3 0
2848 2775 0 0
2848 2848 0 0
2848 2850 0 0
2850 2775 2.083333333333326E-3 0
2850 2848 0 0
2850 2850 8.333333333333304E-3 0
2850 2924 0 0
2850 2926 2.083333333333326E-3 0
2924 2850 0 0
2924 2924 0 0
2924 2926 0 0
2926 2850 2.083333333333326E-3 0
2926 2924 0 0
2926 2926 8.33333333333334E-3 0
2926 3001 0 0
2926 3003 2.083333333333344E-3 0
3001 2926 0 0
3001 3001 0 0
3001 3003 0 0
3003 2926 2.083333333333344E-3 0
3003 3001 0 0
3003 3003 8.33333333333334E-3 0
3003 3079 0 0
3003 3081 2.083333333333326E-3 0
3079 3003 0 0
3079 3079 0 0
3079 3081 0 0
3081 3003 2.083333333333326E-3 0
3081 3079 0 0
3081 3081 8.33333333333334E-3 0
3081 3158 0 0
3081 3160 2.083333333333344E-3 0
3158 3081 0 0
3158 3158 0 0
3158 3160 0 0
3160 3081 2.083333333333344E-3 0
3160 3158 0 0
3160 3160 8.33333333333334E-3 0
3160 3238 0 0
3160 3240 2.083333333333326E-3 0
3238 3160 0 0
3238 3238 0 0
3238 3240 0 0
3240 3160 2.083333333333326E-3 0
3240 3238 0 0
3240 3240 8.333333333333304E-3 0
3240 3319 0 0
3240 3321 2.083333333333326E-3 0
3319 3240 0 0
3319 3319 0 0
3319 3321 0 0
3321 3240 2.083333333333326E-3 0
3321 3319 0 0
3321 3321 4.166666666666652E-3 0
