%%MatrixMarket matrix array complex general
%
6561 1
-5.876797005781851E-3 -1.3883106193498193E-1
-1.9172154660468538E-2 -1.3415223662503026E-1
-1.9171623762147667E-2 -1.3415100579707048E-1
-5.870635265406286E-3 -1.3883604161156776E-1
8.1712407834696E-3 -1.4224682251822934E-1
-1.9171636145859546E-2 -1.3414994340102906E-1
8.17979238911177E-3 -1.4225302746212473E-1
-5.866918576489726E-3 -1.388382057980609E-1
2.285482707087666E-2 -1.4429357186379319E-1
-1.9172143494365183E-2 -1.341490904296249E-1
2.2864891994563798E-2 -1.4429963148846525E-1
8.186121990788987E-3 -1.4225671404585435E-1
-5.86455485075331E-3 -1.388392187940367E-1
3.8045700153864236E-2 -1.4487750673334265E-1
-1.9173108426704506E-2 -1.341484700099632E-1
3.805695861530781E-2 -1.448829193460239E-1
2.2873121885425344E-2 -1.443037434241236E-1
8.190901364364173E-3 -1.4225891350429587E-1
-5.863105817081898E-3 -1.3883973773542577E-1
5.3604060057604166E-2 -1.439167506856831E-1
-1.917449949448797E-2 -1.3414809545144246E-1
5.361633556481288E-2 -1.4392125667776673E-1
3.8066679549209524E-2 -1.4488683202182273E-1
2.287986948003711E-2 -1.4430645332270572E-1
8.194544137890494E-3 -1.4226025716047846E-1
-5.862362291728877E-3 -1.388400643568445E-1
6.937915501014877E-2 -1.413423421767345E-1
-1.917628897145391E-2 -1.3414797392341055E-1
6.939230898517729E-2 -1.4134576535410212E-1
5.36272878836658E-2 -1.43924591493927E-1
3.8075051137405586E-2 -1.4488953882136316E-1
2.288542934558068E-2 -1.4430821582942688E-1
8.197299519979774E-3 -1.422611197447297E-1
-5.862206922942693E-3 -1.3884035650282947E-1
8.521024601072252E-2 -1.3709947705173392E-1
-1.9178451742569276E-2 -1.3414810839031915E-1
8.522414693743273E-2 -1.3710167897179068E-1
6.940429987474349E-2 -1.4134826766855302E-1
5.3637023924877326E-2 -1.439269244294532E-1
3.808226804206296E-2 -1.4489134369760392E-1
2.289001825186769E-2 -1.4430936311734902E-1
8.199324309334238E-3 -1.422617303370498E-1
-5.86256433138934E-3 -1.3884070544932983E-1
1.0092779780032496E-1 -1.3114876258861588E-1
-1.9180964682146525E-2 -1.3414849875735838E-1
1.0094231083525544E-1 -1.3114962768540261E-1
8.523701140989909E-2 -1.3710316101049672E-1
6.941519288074657E-2 -1.4134995409741577E-1
5.3645671655912E-2 -1.439284580537143E-1
3.80884978966401E-2 -1.448925074789138E-1
2.2893791505536793E-2 -1.443101296164141E-1
8.200723513128106E-3 -1.4226223536528906E-1
-5.863380726703826E-3 -1.3884116777797129E-1
1.1635485084204256E-1 -1.234674039138095E-1
-1.9183806274061816E-2 -1.34149142615183E-1
1.1636983398340035E-1 -1.2346683427032222E-1
1.0095589344303905E-1 -1.311499421777474E-1
8.524888181783807E-2 -1.3710399278632612E-1
6.942507398537684E-2 -1.4135096299834024E-1
5.365335520303677E-2 -1.4392938853848833E-1
3.809387541337964E-2 -1.4489323798793807E-1
2.289686177214365E-2 -1.443106810636883E-1
8.20157205089055E-3 -1.4226273252877525E-1
-5.864614595658086E-3 -1.3884178010477696E-1
1.3130855450382375E-1 -1.1405028532592643E-1
-1.9186956362720265E-2 -1.3415003576043147E-1
1.31323857307566E-1 -1.1404819902867827E-1
1.1638398006706158E-1 -1.2346586205413576E-1
1.0096857467806036E-1 -1.3114975489269712E-1
8.525981774050131E-2 -1.3710427203541178E-1
6.943403425356252E-2 -1.4135144080453668E-1
5.366018422403881E-2 -1.4392988832970469E-1
3.809850662152274E-2 -1.4489369624627801E-1
2.2899313145577964E-2 -1.4431113644432841E-1
8.201926517424246E-3 -1.4226328936065089E-1
-5.866232094974129E-3 -1.388425665624246E-1
1.456018478528991E-1 -1.0291092191184158E-1
-1.919039598132298E-2 -1.3415117257970668E-1
1.4561731128420366E-1 -1.0290725275452688E-1
1.313384088043396E-1 -1.1404584316773847E-1
1.1639730985969828E-1 -1.234645230756459E-1
1.0098039714104225E-1 -1.3114913727552158E-1
8.52698864510161E-2 -1.3710410906642265E-1
6.944216044178461E-2 -1.413515266068449E-1
5.366625159026092E-2 -1.4393010200099576E-1
3.810247520092708E-2 -1.448940062006576E-1
2.290121053761873E-2 -1.4431158277945855E-1
8.201831816189251E-3 -1.422639538263937E-1
-5.868204405169651E-3 -1.3884354294743476E-1
1.5904527491634318E-1 -9.008226071806338E-2
-1.9194107223427945E-2 -1.3415254634846488E-1
1.5906073186864572E-1 -9.007695865041958E-2
1.4563210486183478E-1 -1.029034358090155E-1
1.3135222433505017E-1 -1.1404324496559949E-1
1.1640985469895788E-1 -1.2346287121468884E-1
1.0099141122057265E-1 -1.3114817378138485E-1
8.527915592946808E-2 -1.3710361513060962E-1
6.944953075545306E-2 -1.4135134492579296E-1
5.367163474732437E-2 -1.4393014806741578E-1
3.810584813775143E-2 -1.44894263553862E-1
2.2902605822647613E-2 -1.443120849308764E-1
8.201324911133543E-3 -1.4226476038145577E-1
-5.870506253267986E-3 -1.388447193402711E-1
1.7144892058667302E-1 -7.561731400439216E-2
-1.9198073149372125E-2 -1.3415414946063267E-1
1.714641968072976E-1 -7.561034579477002E-2
1.590755983672571E-1 -9.007162157792716E-2
1.4564624021305808E-1 -1.0289949236534665E-1
1.3136532751609978E-1 -1.1404044616964591E-1
1.164216529264886E-1 -1.2346097232328838E-1
1.0100167020437643E-1 -1.3114695358548076E-1
8.528769069736751E-2 -1.3710289529007702E-1
6.945621375627493E-2 -1.4135100357936795E-1
5.367639823137342E-2 -1.4393012277089226E-1
3.8108680146580254E-2 -1.4489454281226027E-1
2.2903541519996927E-2 -1.44312691464467E-1
8.200437249081205E-3 -1.4226573398415326E-1
-5.8731150693046505E-3 -1.388461015258913E-1
1.8262445164286345E-1 -5.958960786194978E-2
-1.9202277708109E-2 -1.3415597362762946E-1
1.82639366947211E-1 -5.9580957906154655E-2
1.7147896145921532E-1 -7.560344768204078E-2
1.590898833931095E-1 -9.006626652816559E-2
1.4565973548372557E-1 -1.0289545549011017E-1
1.3137774796617907E-1 -1.1403749904125607E-1
1.1643274653243693E-1 -1.2345889840442642E-1
1.010112268302249E-1 -1.3114556458496465E-1
8.529554983758239E-2 -1.371020448310426E-1
6.946226885335595E-2 -1.413505941797623E-1
5.368059627317068E-2 -1.4393010417898877E-1
3.811101666002711E-2 -1.448949019001074E-1
2.29040537063965E-2 -1.443134395203037E-1
8.199196282796686E-3 -1.422668926302343E-1
-5.876010333374411E-3 -1.388476921239925E-1
1.9238724573337698E-1 -4.209343157735682E-2
-1.9206705674922657E-2 -1.3415801003666636E-1
1.9240161544711654E-1 -4.2083102653177336E-2
1.8265385011196053E-1 -5.957247611944952E-2
1.7149322157453745E-1 -7.559663351328383E-2
1.5910360109933072E-1 -9.006092017959845E-2
1.4567261385495192E-1 -1.0289136732803134E-1
1.3138951900616336E-1 -1.1403446226515401E-1
1.164431784928125E-1 -1.2345672287747761E-1
1.0102013120851673E-1 -1.3114408963340596E-1
8.530278641016097E-2 -1.371011479880965E-1
6.946774748473514E-2 -1.4135019389759393E-1
5.3684274766411E-2 -1.4393015505336848E-1
3.811289644211426E-2 -1.4489538664531348E-1
2.2904173523124582E-2 -1.4431435725628722E-1
8.197626421687757E-3 -1.4226824898274215E-1
-5.879173174098071E-3 -1.388494912880454E-1
2.0055858947668534E-1 -2.324387456212164E-2
-1.9211342598134503E-2 -1.3416024948562363E-1
2.0057222608036365E-1 -2.3231888583177263E-2
1.924156337053199E-1 -4.2073033199695395E-2
1.8266790669651528E-1 -5.956417392951475E-2
1.7150698830893638E-1 -7.558992513739501E-2
1.5911676981637557E-1 -9.005561698577229E-2
1.456849019489411E-1 -1.0288727616412854E-1
1.3140067566341682E-1 -1.1403139729255418E-1
1.1645299091974022E-1 -1.234545171700568E-1
1.0102842979209924E-1 -1.3114260451564397E-1
8.530944768462789E-2 -1.37100278113854E-1
6.947269411154729E-2 -1.413498666582345E-1
5.368747340621323E-2 -1.4393032662491065E-1
3.811435300697237E-2 -1.448960329765066E-1
2.290392841036138E-2 -1.4431546594909758E-1
8.195749727846768E-3 -1.422698115222028E-1
-5.882586169531356E-3 -1.388514972457556E-1
2.0696792530168112E-1 -3.1766396843640773E-3
-1.9216174753551512E-2 -1.3416268249820174E-1
2.06980640108183E-1 -3.1630380446148296E-3
2.0058559364184467E-1 -2.3220246569079072E-2
1.924293049482038E-1 -4.20632327765968E-2
1.8268154554299618E-1 -5.955606944050377E-2
1.7152027626076893E-1 -7.55833510445104E-2
1.5912941093337193E-1 -9.00503970311368E-2
1.4569662835462652E-1 -1.0288323363968797E-1
1.3141125314140809E-1 -1.140283654578213E-1
1.1646222392487486E-1 -1.2345234848676828E-1
1.0103616501999181E-1 -1.3114117704818004E-1
8.531557554494056E-2 -1.3709949797950358E-1
6.947714791192916E-2 -1.413496662920397E-1
5.3690226761138195E-2 -1.4393066010604422E-1
3.8115415852586786E-2 -1.4489686901933385E-1
2.290334293287174E-2 -1.4431678138101978E-1
8.193586282948006E-3 -1.422715855183313E-1
-5.886232934560856E-3 -1.3885370667987434E-1
2.114551244693931E-1 1.7952378089877586E-2
-1.922118910125921E-2 -1.3416529942860467E-1
2.1146672970424008E-1 1.796753362149407E-2
2.0699317030627784E-1 -3.1498579895839177E-3
2.005986956573126E-1 -2.3208956581409156E-2
1.924426361649024E-1 -4.205371650657824E-2
1.8269477832092657E-1 -5.954818643178993E-2
1.7153310267305966E-1 -7.557694477295862E-2
1.5914154781048834E-1 -9.004530389399175E-2
1.4570782240599037E-1 -1.0287929236071366E-1
1.3142128576670623E-1 -1.1402542587529259E-1
1.1647091504900119E-1 -1.2345027857099164E-1
1.010433754252636E-1 -1.3113986705788888E-1
8.532120735531484E-2 -1.370988612491153E-1
6.94811433614668E-2 -1.4134963705421605E-1
5.3692565366758434E-2 -1.4393118853479198E-1
3.8116111352934724E-2 -1.4489791657484785E-1
2.2902439478167783E-2 -1.4431831503623974E-1
8.191154658430885E-3 -1.4227357340324748E-1
-5.890098154974296E-3 -1.3885611506823292E-1
2.1387276381267664E-1 3.9967752187422725E-2
-1.922637325147733E-2 -1.34168090522025E-1
2.1388307454390196E-1 3.998437948208495E-2
2.1147823683470388E-1 1.7982197350000374E-2
2.0700551863749334E-1 -3.1371063028892165E-3
2.0061153770613097E-1 -2.3198031400172826E-2
1.924556366962975E-1 -4.204450439259357E-2
1.827076189365034E-1 -5.95405531447927E-2
1.7154548662985705E-1 -7.557074325924203E-2
1.591532048165591E-1 -9.004038273132241E-2
1.457185132714106E-1 -1.0287550404418817E-1
1.3143080632781476E-1 -1.1402263401954664E-1
1.1647909904756665E-1 -1.234483630654006E-1
1.0105009590135217E-1 -1.3113872659439746E-1
8.532637651050304E-2 -1.370984131648592E-1
6.948471100904827E-2 -1.4134981480874614E-1
5.369451664747876E-2 -1.43931938340167E-1
3.8116463471547096E-2 -1.4489919235768262E-1
2.290123839112502E-2 -1.4432007456419796E-1
8.188472263833029E-3 -1.422757755007754E-1
-5.894167395155971E-3 -1.388587168722854E-1
2.1408838061822888E-1 6.267543238962853E-2
-1.9231715425763855E-2 -1.341710460104632E-1
2.140972168737628E-1 6.269342878641018E-2
2.1389337571516967E-1 4.000045251646199E-2
2.1148964798546319E-1 1.7996363499262934E-2
2.0701768947338928E-1 -3.1247937943057707E-3
2.006241272062929E-1 -2.318748792984687E-2
1.9246831771733966E-1 -4.2035620339610336E-2
1.827200829374344E-1 -5.9533200987869586E-2
1.7155744829998087E-1 -7.556478524689503E-2
1.5916440658842895E-1 -9.003567859820005E-2
1.4572872930454261E-1 -1.0287191809019214E-1
1.3143984573331582E-1 -1.1402004086352492E-1
1.1648680792042101E-1 -1.2344665133273636E-1
1.0105635808683361E-1 -1.311378004219441E-1
8.533111307763758E-2 -1.3709819156135766E-1
6.948787871629436E-2 -1.4135022954133297E-1
5.369610549739345E-2 -1.4393293030581292E-1
3.81164938619947E-2 -1.4490070824314796E-1
2.289975865966671E-2 -1.443220646512188E-1
8.185555297372872E-3 -1.42278190289182E-1
-5.898427009458928E-3 -1.388615057564654E-1
2.1198668045557997E-1 8.586390128375591E-2
-1.923720442519766E-2 -1.3417415616549422E-1
2.1199386939229328E-1 8.588314373246683E-2
2.1410613399131637E-1 6.271081673001938E-2
2.139036689319525E-1 4.001596636706821E-2
2.1150096652200323E-1 1.8010022878170544E-2
2.0702968862679158E-1 -3.1129348212197744E-3
2.00636473059023E-1 -2.317734649032877E-2
1.9248069182658642E-1 -4.20270911337144E-2
1.8273218694173857E-1 -5.952616326031873E-2
1.7156900835576708E-1 -7.555910994571849E-2
1.5917517742163945E-1 -9.003123520712025E-2
1.4573849765946095E-1 -1.0286858063971717E-1
1.3144843286858962E-1 -1.1401769236681483E-1
1.1649407107656688E-1 -1.2344518654311709E-1
1.0106219077819144E-1 -1.3113712660327936E-1
8.533544432955097E-2 -1.370982276992845E-1
6.949067159635716E-2 -1.4135090469338354E-1
5.369735440335758E-2 -1.4393417976680237E-1
3.811622281271783E-2 -1.4490247293021744E-1
2.289801799021185E-2 -1.4432428744119233E-1
8.18241902988603E-3 -1.4228081469700374E-1
-5.90286406181513E-3 -1.3886447470716384E-1
2.0747167142337564E-1 1.093055798096187E-1
-1.9242829598852283E-2 -1.341774113493831E-1
2.0747704954156657E-1 1.0932592518331269E-1
2.1200123121802905E-1 8.590173229036328E-2
2.1411513313385466E-1 6.272759199652418E-2
2.1391395670865385E-1 4.0030913183503825E-2
2.115121969094028E-1 1.802316325342839E-2
2.070415231113527E-1 -3.1015467007071296E-3
2.006485853700368E-1 -2.316762996732029E-2
1.924927725913662E-1 -4.201894540483128E-2
1.8274394813922887E-1 -5.9519473997273274E-2
1.7158018742244072E-1 -7.555375581692471E-2
1.5918554090279427E-1 -9.002709392852452E-2
1.4574784405110974E-1 -1.0286553386591697E-1
1.314565946231673E-1 -1.1401562931698385E-1
1.1650091556063769E-1 -1.2344400591675031E-1
1.0106762030568238E-1 -1.311367370025939E-1
8.533939530930322E-2 -1.370985473315701E-1
6.949311249691768E-2 -1.4135185820052124E-1
5.3698284504731485E-2 -1.4393569861985603E-1
3.811566914146955E-2 -1.449044917013226E-1
2.289603300581178E-2 -1.4432674284163602E-1
8.17907791208865E-3 -1.4228364430923887E-1
-5.907466258189626E-3 -1.3886761618247592E-1
2.0046869778709178E-1 1.3275847946610694E-1
-1.9248580813364877E-2 -1.3418080205804803E-1
2.0047211315950303E-1 1.3277976510931672E-1
2.0748269381155215E-1 1.0934558047570654E-1
2.1200876671560623E-1 8.59196633097462E-2
2.1412421608552426E-1 6.27437478561417E-2
2.139242423611045E-1 4.004528251075459E-2
2.1152334453316501E-1 1.803576983449803E-2
2.0705320090265844E-1 -3.0906490351522166E-3
2.0066047506524623E-1 -2.3158362980623792E-2
1.9250457415964453E-1 -4.2011212633650534E-2
1.8275538385760967E-1 -5.9513166895196805E-2
1.715910057483572E-1 -7.554875966730262E-2
1.5919551963616388E-1 -9.002329302893294E-2
1.457567926974028E-1 -1.0286281566811538E-1
1.314643559829969E-1 -1.1401388729804611E-1
1.1650736637020591E-1 -1.2344314104187973E-1
1.010726709481461E-1 -1.311366581120197E-1
8.534298882494624E-2 -1.3709917024524995E-1
6.949522299561865E-2 -1.413531044803878E-1
5.369891537477939E-2 -1.4393749477618042E-1
3.8114850503714194E-2 -1.4490676704053057E-1
2.289381941231156E-2 -1.4432942880880434E-1
8.17554568103242E-3 -1.4228667359919908E-1
-5.9122218962400835E-3 -1.388709222019391E-1
1.909263457224955E-1 1.559680958329214E-1
-1.9254448423352867E-2 -1.3418431895579772E-1
1.90927660214378E-1 1.5599014036082232E-1
2.004758887188583E-1 1.3280033422957166E-1
2.0748860468248168E-1 1.0936454253795734E-1
2.1201647703542437E-1 8.593693100540672E-2
2.1413338516826755E-1 6.275927534818462E-2
2.1393452987249462E-1 4.0059061687410795E-2
2.1153441549657023E-1 1.8047825836850703E-2
2.0706473062449693E-1 -3.080262948818585E-3
2.0067215364261684E-1 -2.3149571024252996E-2
1.9251611093740406E-1 -4.200392225442329E-2
1.8276651130997876E-1 -5.9507274485972796E-2
1.7160148297341907E-1 -7.554415587803504E-2
1.5920513507357484E-1 -9.001986721968051E-2
1.4576536629939105E-1 -1.0286045945265904E-1
1.3147174019322788E-1 -1.1401249682627325E-1
1.1651344659732737E-1 -1.2344261825901279E-1
1.0107736515125694E-1 -1.3113691113817397E-1
8.534624622038063E-2 -1.3710011195437014E-1
6.949702307149862E-2 -1.413546535424193E-1
5.36992653486672E-2 -1.439395727927285E-1
3.8113783593092226E-2 -1.4490929898785937E-1
2.2891392197236085E-2 -1.4433234171370432E-1
8.171835391499528E-3 -1.4228989601446695E-1
-5.9171197966869414E-3 -1.3887438445592076E-1
1.7881819389831236E-1 1.786695351280053E-1
-1.9260423243352264E-2 -1.3418795290147897E-1
1.7881728534720387E-1 1.786921394711852E-1
1.9092942915060956E-1 1.560114521380514E-1
2.0048002462448192E-1 1.3282018408855217E-1
2.0749478275344427E-1 1.0938280636523193E-1
2.120243636322833E-1 8.595352767167598E-2
2.141426431385515E-1 6.277416361240534E-2
2.139448237431885E-1 4.0072236312091634E-2
2.1154541653413603E-1 1.805931304300434E-2
2.0707612135254905E-1 -3.0704104853171953E-3
2.0068363276987938E-1 -2.314127968017844E-2
1.9252739715483969E-1 -4.199710280337814E-2
1.8277734713989802E-1 -5.950182736329316E-2
1.7161163779069727E-1 -7.553997585558975E-2
1.5921440763316336E-1 -9.001684736234601E-2
1.4577358617546943E-1 -1.0285849408248865E-1
1.314787689410056E-1 -1.1401148349860035E-1
1.165191777590364E-1 -1.2344245888652836E-1
1.0108172364443696E-1 -1.311375119317118E-1
8.534918747529956E-2 -1.3710138387819273E-1
6.949853128392683E-2 -1.413565111929562E-1
5.3699351840455524E-2 -1.4394193451760906E-1
3.81124843248502E-2 -1.4491208552719134E-1
2.2888765488568868E-2 -1.4433547621229445E-1
8.16795957467171E-3 -1.422933042372943E-1
-5.922149271883357E-3 -1.3887799435064307E-1
1.6414438185533867E-1 2.0058986273265428E-1
-1.9266496518546946E-2 -1.3419169497165287E-1
1.641411462043146E-1 2.0061281138674936E-1
1.7881692510100694E-1 1.7871400545069485E-1
1.909316524380499E-1 1.5603202876178085E-1
2.0048452098723396E-1 1.3283931033907168E-1
2.0750122871671878E-1 1.0940036530292009E-1
2.1203242818547643E-1 8.596944396626952E-2
2.1415199306618204E-1 6.278840028859238E-2
2.1395512887170015E-1 4.008479075496847E-2
2.1155635445187237E-1 1.8070212536866918E-2
2.070873823852752E-1 -3.061113802452912E-3
2.006949241361844E-1 -2.313351391419336E-2
1.9253844688935362E-1 -4.199078133312005E-2
1.8278790753590565E-1 -5.949685367462293E-2
1.7162148821067003E-1 -7.55362477152891E-2
1.5922335643069582E-1 -9.001426027622227E-2
1.4578147230858654E-1 -1.0285694389315526E-1
1.3148546250361712E-1 -1.1401086818289327E-1
1.1652457992798494E-1 -1.2344267943602667E-1
1.0108576612217317E-1 -1.3113847290431702E-1
8.535183137552302E-2 -1.3710299347172766E-1
6.949976562270588E-2 -1.4135868115751626E-1
5.369919135963634E-2 -1.439445791129654E-1
3.811096772262713E-2 -1.4491512234997855E-1
2.2885952979828404E-2 -1.4433882591478717E-1
8.163930232376968E-3 -1.4229689019335992E-1
-5.927300076838556E-3 -1.3888174307930023E-1
1.4693296981489148E-1 2.2145065945896208E-1
-1.927265989704979E-2 -1.3419553647489715E-1
1.469273231303435E-1 2.2147372202587318E-1
1.6413855162082586E-1 2.0063502705814212E-1
1.7881711284145707E-1 1.7873513095160795E-1
1.9093432976066657E-1 1.5605186641847732E-1
2.0048937782815654E-1 1.3285770719296927E-1
2.0750794330060718E-1 1.0941721127828186E-1
2.1204067250318742E-1 8.598466925530134E-2
2.1416143826469783E-1 6.280197193958977E-2
2.1396545021527555E-1 4.009670872500986E-2
2.1156723639845543E-1 1.8080505161598922E-2
2.070985230004652E-1 -3.052394593187148E-3
2.0070603923881644E-1 -2.3126297402189366E-2
1.9254927373994654E-1 -4.198498278539584E-2
1.8279820801672686E-1 -5.949237867857523E-2
1.7163105114647081E-1 -7.553299595689437E-2
1.5923199959936774E-1 -9.001212862609642E-2
1.4578904348761873E-1 -1.0285582878507624E-1
1.3149183989986984E-1 -1.1401066717506618E-1
1.165296720511746E-1 -1.2344329229110183E-1
1.010895110887723E-1 -1.3113980214725152E-1
8.535419572273752E-2 -1.3710494468004294E-1
6.950074275457564E-2 -1.4136116295910336E-1
5.369879961445408E-2 -1.4394750316797403E-1
3.810924839537537E-2 -1.449184038585872E-1
2.2882967780626307E-2 -1.4434238318191642E-1
8.159758907871122E-3 -1.4230064517546165E-1
-5.932562361219901E-3 -1.3888562163272672E-1
1.27241064461862E-1 2.4097076838426235E-1
-1.9278905401954916E-2 -1.341994689607768E-1
1.2723294496555615E-1 2.409937013080698E-1
1.4692240843421978E-1 2.2149606825824983E-1
1.641365975921385E-1 2.0065650786168093E-1
1.788178478809331E-1 1.787555125778666E-1
1.9093746054800492E-1 1.5607096002713244E-1
2.0049459502713463E-1 1.328753676356451E-1
2.0751492718532133E-1 1.0943333511545471E-1
2.120490984390548E-1 8.599919198325388E-2
2.1417098197738915E-1 6.28148645609838E-2
2.1397579289763832E-1 4.0107973743641376E-2
2.115780694350105E-1 1.8090172162905743E-2
2.071095523082041E-1 -3.0442734535151804E-3
2.0071698924316286E-1 -2.3119652041191652E-2
1.9255989080698968E-1 -4.197972956649379E-2
1.8280826325156294E-1 -5.948842440332765E-2
1.7164034271599637E-1 -7.553024129335885E-2
1.5924035423614097E-1 -9.001047094587304E-2
1.4579631740598253E-1 -1.0285516430766599E-1
1.314979191098074E-1 -1.140108925527647E-1
1.1653447203233966E-1 -1.234443057232487E-1
1.0109297610545899E-1 -1.311415040634021E-1
8.535629749272163E-2 -1.3710723824109214E-1
6.950147886048655E-2 -1.413639540439265E-1
5.369819188135099E-2 -1.4395070168827143E-1
3.810734034241707E-2 -1.449219227270588E-1
2.287982252575814E-2 -1.44346139331636E-1
8.155456732856859E-3 -1.4230455991229174E-1
-5.937926751152997E-3 -1.388896210480801E-1
1.051556864394108E-1 2.588692117555144E-1
-1.9285225398473046E-2 -1.3420348422852962E-1
1.0514505600063123E-1 2.5889176052103824E-1
1.272256455713318E-1 2.4101594611228666E-1
1.4691822502842097E-1 2.2151769650027436E-1
1.641352831089348E-1 2.00677250702333E-1
1.7881912913113832E-1 1.7877514580956855E-1
1.9094104393193795E-1 1.5608930343124666E-1
2.005001722584716E-1 1.3289228369160275E-1
2.075221809131857E-1 1.0944872684897151E-1
2.1205770771882818E-1 8.601300011559615E-2
2.141806274889667E-1 6.282706401543797E-2
2.139861619207585E-1 4.0118569680269646E-2
2.1158886042418923E-1 1.809919576370681E-2
2.0712047911977607E-1 -3.0367694043573114E-3
2.0072778484616458E-1 -2.3113597466939688E-2
1.9257031050300957E-1 -4.1975041196260235E-2
1.828180872635633E-1 -5.9485009440487936E-2
1.7164937815719025E-1 -7.552800058827269E-2
1.5924843649510795E-1 -9.000930164149709E-2
1.458033108204012E-1 -1.0285496186159078E-1
1.3150371717937395E-1 -1.1401155227024981E-1
1.1653899695326224E-1 -1.2344572415459354E-1
1.0109617798328542E-1 -1.3114357959741002E-1
8.535815300301725E-2 -1.3710987191914126E-1
6.950198966234519E-2 -1.4136704985054607E-1
5.3697382814401014E-2 -1.43954167518426E-1
3.810525708872595E-2 -1.4492567019564034E-1
2.2876529404515875E-2 -1.4435008473323865E-1
8.151034568605501E-3 -1.4230862463630287E-1
-5.9433840192566955E-3 -1.3889373194196744E-1
8.079435650846793E-2 2.7486825689764105E-1
-1.9291612584694088E-2 -1.3420757431641164E-1
8.078120262146861E-2 2.7489015782991677E-1
1.0513533036420376E-1 2.589136608577617E-1
1.2721916557257534E-1 2.4103750110035704E-1
1.4691477163118796E-1 2.215386037864641E-1
1.641346066329268E-1 2.0069725149228088E-1
1.788209550681232E-1 1.7879402516852583E-1
1.9094507869304903E-1 1.5610688963230973E-1
2.0050610891811835E-1 1.3290844671780092E-1
2.0752970483433206E-1 1.094633761096653E-1
2.120665019430281E-1 8.60260815194145E-2
2.1419037788870252E-1 6.28385564910028E-2
2.1399656205276607E-1 4.01284812830095E-2
2.1159961595126595E-1 1.8107559583157518E-2
2.0713131185393988E-1 -3.0298994498191506E-3
2.0073843626126212E-1 -2.3108150712835087E-2
1.92580544696927E-1 -4.197093404231653E-2
1.828276933237011E-1 -5.948214879019988E-2
1.7165817193205213E-1 -7.552628682121726E-2
1.592562616955945E-1 -9.000863109443363E-2
1.458100397015093E-1 -1.0285522871700059E-1
1.3150925033833744E-1 -1.1401265060270094E-1
1.165432631030139E-1 -1.2344754857308175E-1
1.010991328080949E-1 -1.3114602668891284E-1
8.535977794678734E-2 -1.3711284079267558E-1
6.950229024452849E-2 -1.4137044329894805E-1
5.3696386563417E-2 -1.439578916232409E-1
3.8103011769100616E-2 -1.4492963625909003E-1
2.2873100786122518E-2 -1.443542090907751E-1
8.14650280993547E-3 -1.4231282916445467E-1
-5.948925455493675E-3 -1.388979451281393E-1
5.4305380737737746E-2 2.886966017332434E-1
-1.9298059945401628E-2 -1.342117315052671E-1
5.428971773584353E-2 2.8871758470240644E-1
8.076903370191911E-2 2.749114617311274E-1
1.0512650865200232E-1 2.5893491117598216E-1
1.2721350344639656E-1 2.4105836358683064E-1
1.469120463118828E-1 2.2155878637299461E-1
1.6413456607518692E-1 2.0071650526666593E-1
1.7882332368299053E-1 1.7881214442736046E-1
1.9094956319245926E-1 1.5612371106625517E-1
2.0051240407186857E-1 1.3292384773218946E-1
2.0753749900166665E-1 1.0947727248000332E-1
2.120754824301061E-1 8.603842439920141E-2
2.1420023599246363E-1 6.284932896734473E-2
2.14006997748875E-1 4.013769458381554E-2
2.1161034222487532E-1 1.8115249080340755E-2
2.071420584907573E-1 -3.02367821537151E-3
2.0074895315300728E-1 -2.3103325902980445E-2
1.9259060462051855E-1 -4.1967421134420854E-2
1.8283709402251816E-1 -5.947985377029808E-2
1.7166673771851873E-1 -7.552510906305707E-2
1.592638444782749E-1 -9.000846560281649E-2
1.4581651919232436E-1 -1.0285596858099066E-1
1.3151453419377274E-1 -1.1401418801595749E-1
1.1654728618833099E-1 -1.2344977658149431E-1
1.0110185616242402E-1 -1.311488402028994E-1
8.536118749272281E-2 -1.371161375360784E-1
6.950239500202778E-2 -1.413741245341177E-1
5.369521696929587E-2 -1.4396186362574329E-1
3.81006175632116E-2 -1.449338098502832E-1
2.2869547727242187E-2 -1.4435850101621353E-1
8.141871465897134E-3 -1.4231716294901264E-1
-5.954542554806266E-3 -1.389022513021063E-1
2.5867814694491904E-2 3.000926551231489E-1
-1.9304560732376616E-2 -1.3421594830721478E-1
2.584968499717362E-2 3.00112446095662E-1
5.427511442246122E-2 2.887380336140385E-1
8.075784879939073E-2 2.7493216702031964E-1
1.0511858919762505E-1 2.5895550886791463E-1
1.2720865695375824E-1 2.4107852995940277E-1
1.4691004652248155E-1 2.2157823964965545E-1
1.6413515873451573E-1 2.0073500637847125E-1
1.7882623241528925E-1 1.788294968621345E-1
1.9095449534119763E-1 1.5613975987582399E-1
2.0051905636865364E-1 1.3293847775078826E-1
2.0754556310516586E-1 1.094904058710646E-1
2.1208465013963754E-1 8.605001770915983E-2
2.142102042268765E-1 6.2859369644633E-2
2.1401747308513258E-1 4.014619730229511E-2
2.1162104501985352E-1 1.8122251918043727E-2
2.0715272650136257E-1 -3.01811762218746E-3
2.007593446479433E-1 -2.3099134046667306E-2
1.9260050086597563E-1 -4.196451199920584E-2
1.828463012810191E-1 -5.947813197143122E-2
1.716750886173788E-1 -7.552447247155591E-2
1.5927119870744427E-1 -9.000880799879084E-2
1.4582276392891538E-1 -1.0285718122436904E-1
1.3151958376852507E-1 -1.1401616160931088E-1
1.1655108137653669E-1 -1.2345240264266301E-1
1.0110436315542887E-1 -1.3115201229243517E-1
8.536239646438513E-2 -1.3711975237603716E-1
6.950231846684417E-2 -1.413780832109495E-1
5.3693887855619175E-2 -1.439660715039608E-1
3.8098086545340144E-2 -1.4493817853486948E-1
2.2865881544605372E-2 -1.4436294878509834E-1
8.137150397320802E-3 -1.423216151402521E-1
-5.960227060842347E-3 -1.3890664114409415E-1
-4.308908426783193E-3 3.088078791841095E-1
-1.9311108437155812E-2 -1.3422021745315033E-1
-4.329433366014324E-3 3.0882620302810987E-1
2.5832683270997026E-2 3.0013177739503777E-1
5.426156981010648E-2 2.887579468635455E-1
8.074764613907458E-2 2.749522710887997E-1
1.0511156953918682E-1 2.589754504038938E-1
1.272046231537367E-1 2.4109799581805594E-1
1.4690876897230262E-1 2.2159695835879464E-1
1.6413638124596416E-1 2.0075274872474763E-1
1.7882967813932857E-1 1.7884607550243975E-1
1.9095987250988322E-1 1.56155028239201E-1
2.0052606398695452E-1 1.3295232812193303E-1
2.0755389636445426E-1 1.0950276694409462E-1
2.120940055949154E-1 8.606085154326464E-2
2.1422028461168324E-1 6.286866829323176E-2
2.1402799167770126E-1 4.015397921321435E-2
2.1163172963772114E-1 1.8128558285173197E-2
2.0716332285557967E-1 -3.013226673307595E-3
2.0076961927554166E-1 -2.309558282800715E-2
1.926102434635088E-1 -4.1962212616119696E-2
1.8285532646086666E-1 -5.947698721327482E-2
1.7168323704421126E-1 -7.552437868431107E-2
1.5927833781168102E-1 -9.000965712449939E-2
1.4582878800281002E-1 -1.0285886297943626E-1
1.3152441357309277E-1 -1.1401856520804814E-1
1.1655466341901137E-1 -1.234554183126858E-1
1.0110666849826286E-1 -1.3115553261947954E-1
8.536341927652781E-2 -1.3712367348162816E-1
6.950207466206021E-2 -1.4138230590244125E-1
5.369241213955857E-2 -1.4397050179330467E-1
3.8095430968407056E-2 -1.449427293481091E-1
2.2862113258167286E-2 -1.4436753999573887E-1
8.132349219640428E-3 -1.4232617460907038E-1
-5.965970949108948E-3 -1.3891110530474826E-1
-3.5985699202460975E-2 3.146101608951447E-1
-1.931769676420696E-2 -1.3422453187676897E-1
-3.600851820152024E-2 3.146267443149201E-1
-4.348769500190709E-3 3.0884415269844645E-1
2.5816808531032985E-2 3.0015064734669517E-1
5.424908206909953E-2 2.887773217675609E-1
8.073842310000202E-2 2.7497177038400583E-1
1.0510544639591107E-1 2.589947314594404E-1
1.2720139822785823E-1 2.4111675613481062E-1
1.4690820958987644E-1 2.2161493683114614E-1
1.6413822955889454E-1 2.0076972597171652E-1
1.7883365707574758E-1 1.7886187342798623E-1
1.909656914919523E-1 1.5616950866385876E-1
2.0053342454669063E-1 1.329653909142685E-1
2.075624974983599E-1 1.0951434742067527E-1
2.1210354893798095E-1 8.607091753675777E-2
2.1423047869777503E-1 6.28772166326604E-2
2.1403855670727578E-1 4.016103251810628E-2
2.116424008715063E-1 1.813416110574425E-2
2.0717385396402724E-1 -3.0090112228058656E-3
2.0077978507105312E-1 -2.3092676533522254E-2
1.9261984191066212E-1 -4.1960525315035385E-2
1.8286418035023927E-1 -5.9476419771552456E-2
1.7169119498996574E-1 -7.552482545710074E-2
1.5928527471829765E-1 -9.001100834875705E-2
1.4583460503217197E-1 -1.0286100682631681E-1
1.3152903774553476E-1 -1.1402138957775003E-1
1.1655804669940502E-1 -1.2345881243099527E-1
1.0110878656466118E-1 -1.311593884513421E-1
8.53642703891891E-2 -1.3712788710271723E-1
6.950167703306011E-2 -1.4138677807830757E-1
5.3690802706118666E-2 -1.4397514026935526E-1
3.809266281337083E-2 -1.4494744832779138E-1
2.2858253660706616E-2 -1.4437226171924017E-1
8.127477325058608E-3 -1.423308299732003E-1
-5.97176639425784E-3 -1.3891563443544216E-1
-6.88948929623049E-2 3.1728717785424E-1
-1.9324319604020625E-2 -1.342288846961042E-1
-6.891987470635072E-2 3.173017524575599E-1
-3.603009603105027E-2 3.1464304976229207E-1
-4.366917770567419E-3 3.088617264094934E-1
2.5802058951824035E-2 3.001690531276775E-1
5.4237648495381534E-2 2.8879615465227976E-1
8.073017618098047E-2 2.749906605277088E-1
1.0510021560093039E-1 2.5901334706857265E-1
1.2719897757837664E-1 2.411348054435668E-1
1.4690836354641232E-1 2.216321691570227E-1
1.641406988909256E-1 2.007859318718351E-1
1.7883816474631012E-1 1.7887688403952853E-1
1.9097194840490078E-1 1.561831943629846E-1
2.0054113506015767E-1 1.329776592286598E-1
2.0757136469519513E-1 1.0952514046504994E-1
2.121132794483568E-1 8.608020898706208E-2
2.1424078747387545E-1 6.288500859680793E-2
2.1404917078369065E-1 4.016735198597023E-2
2.1165306301230247E-1 1.813905636524672E-2
2.0718432583934313E-1 -3.005473799546525E-3
2.0078984958800233E-1 -2.3090415921187338E-2
1.926293052165381E-1 -4.195944893273552E-2
1.8287287336330596E-1 -5.9476426168837346E-2
1.7169897400920875E-1 -7.552580702865994E-2
1.5929202191013916E-1 -9.001285363157073E-2
1.4584022829011886E-1 -1.0286360256897698E-1
1.3153347007752642E-1 -1.1402462260160814E-1
1.1656124531466369E-1 -1.2346257129103365E-1
1.0111073174813934E-1 -1.3116356495388493E-1
8.53649635068324E-2 -1.3713237754636878E-1
6.950113913031149E-2 -1.4139148436876733E-1
5.368907233159555E-2 -1.4397997140174942E-1
3.808979384844887E-2 -1.4495232072756967E-1
2.2854313335196032E-2 -1.4437710057174283E-1
8.122543928046172E-3 -1.4233556964621885E-1
-5.977605745731833E-3 -1.3892021919682174E-1
-1.0274169701343516E-1 3.166497212596235E-1
-1.9330971006335285E-2 -1.342332691920364E-1
-1.0276867996229726E-1 3.1666202674284044E-1
-6.894357241701665E-2 3.173161554757702E-1
-3.6050433553658875E-2 3.146590753164266E-1
-4.383879935936642E-3 3.088789211432808E-1
2.578843182884532E-2 3.0018699085292994E-1
5.4227265471586066E-2 2.888144409638628E-1
8.072290095067997E-2 2.750089364621484E-1
1.0509587206619846E-1 2.5903129180674817E-1
1.2719735567082383E-1 2.4115213806034563E-1
1.4690922512409602E-1 2.2164864947707286E-1
1.6414378359920667E-1 2.0080136047065228E-1
1.7884319592888573E-1 1.7889110144394865E-1
1.9097863865774445E-1 1.5619607954339582E-1
2.0054919187758521E-1 1.3298912750566108E-1
2.0758049547824398E-1 1.0953514095308595E-1
2.1212319622005577E-1 8.60887215231971E-2
2.142512114327927E-1 6.289204066666743E-2
2.1405983591622557E-1 4.017293511351641E-2
2.1166371976642775E-1 1.814324304429835E-2
2.0719474376742975E-1 -3.002613753409798E-3
2.0079981972279898E-1 -2.308879843959777E-2
1.9263864192883154E-1 -4.1958978654063644E-2
1.8288141534947455E-1 -5.9476999401607236E-2
1.717065852014308E-1 -7.552731420234542E-2
1.592985915680981E-1 -9.00151816718433E-2
1.4584567073923457E-1 -1.0286663700544393E-1
1.315377241082362E-1 -1.1402824945838516E-1
1.1656427317759065E-1 -1.2346667882335483E-1
1.0111251772680727E-1 -1.3116804513706157E-1
8.536551234860466E-2 -1.3713712756062257E-1
6.950047429128717E-2 -1.4139640772278472E-1
5.3687233523091196E-2 -1.4398497853306708E-1
3.80868356598831E-2 -1.449573311867693E-1
2.2850302738322344E-2 -1.44382042777085E-1
8.117558067028545E-3 -1.4234038186351433E-1
-5.983481494201955E-3 -1.3892485027034826E-1
-1.372060071012455E-1 3.125349377842079E-1
-1.9337645153902582E-2 -1.3423767878387646E-1
-1.372347997249932E-1 3.125447251817844E-1
-1.027943465384891E-1 3.166742765642738E-1
-6.896598683279674E-2 3.173303848224543E-1
-3.6069532389762834E-2 3.1467481770878736E-1
-4.3996586105432E-3 3.0889573272018117E-1
2.577592353345017E-2 3.002044556797638E-1
5.4217928418700656E-2 2.888321754064635E-1
8.071659199749205E-2 2.750265926214466E-1
1.0509240973827848E-1 2.5904855998263265E-1
1.2719652603679388E-1 2.4116874829758836E-1
1.469107876659688E-1 2.2166437222665475E-1
1.6414747717979888E-1 2.008160064258762E-1
1.788487444503035E-1 1.7890452060404188E-1
1.9098575698790768E-1 1.5620815966790214E-1
2.005575907287891E-1 1.3299979187221442E-1
2.075898867426888E-1 1.0954434577684512E-1
2.1213329757748695E-1 8.609645304409802E-2
2.1426175042351595E-1 6.289831190789708E-2
2.1407055373778555E-1 4.017778261074954E-2
2.116743744337814E-1 1.8146723447827445E-2
2.0720511279363638E-1 -3.0004268775584426E-3
2.00809702225711E-1 -2.3087817775663808E-2
1.9264786022776145E-1 -4.1959106129276426E-2
1.8288981595290676E-1 -5.9478128991461585E-2
1.7171403944555236E-1 -7.552933445972114E-2
1.5930499558439365E-1 -9.001797806932993E-2
1.4585094510018035E-1 -1.0287009408767918E-1
1.3154181315209906E-1 -1.140322527996234E-1
1.1656714390893272E-1 -1.2347111673021342E-1
1.0111415821286926E-1 -1.31172810265269E-1
8.536593055775267E-2 -1.3714211836704546E-1
6.949969537339407E-2 -1.41401529093373E-1
5.368529868325203E-2 -1.439901444608334E-1
3.80837997331321E-2 -1.449624638077731E-1
2.284623209777568E-2 -1.443870741337467E-1
8.112528674005604E-3 -1.4234525476398738E-1
-5.989386255730789E-3 -1.389295183413929E-1
-1.7194459230887055E-1 3.0480945092657985E-1
-1.934433633497545E-2 -1.3424210700569064E-1
-1.719749736478411E-1 3.0481648590590543E-1
-1.3726225515958765E-1 3.125545816041938E-1
-1.0281869730865477E-1 3.166864684443004E-1
-6.898711936616699E-2 3.173444369248118E-1
-3.6087394967668364E-2 3.146902723880976E-1
-4.414257314380214E-3 3.089121559017541E-1
2.576452945107996E-2 3.002214419417155E-1
5.420963174277169E-2 2.88849352111268E-1
8.071124285837085E-2 2.7504362312559955E-1
1.0508982152207884E-1 2.5906514586859897E-1
1.271964811961062E-1 2.411846307141028E-1
1.4691304362596388E-1 2.2167933239662477E-1
1.641517722529382E-1 2.008298652810667E-1
1.7885480362585607E-1 1.789171377885849E-1
1.9099329724834155E-1 1.5621943177537664E-1
2.005663265211331E-1 1.3300965032252723E-1
2.0759953475280332E-1 1.0955275411919407E-1
2.1214358120412363E-1 8.610340405292634E-2
2.1427240380104065E-1 6.290382438282024E-2
2.1408132529434948E-1 4.018189818061589E-2
2.1168502984376272E-1 1.814950319528992E-2
2.0721543747347643E-1 -2.9989055277934214E-3
2.0081950332764067E-1 -2.3087464226653663E-2
1.926569679355725E-1 -4.195981956222563E-2
1.8289808445416988E-1 -5.94798011389928E-2
1.7172134735309025E-1 -7.553185211599912E-2
1.5931124561194762E-1 -9.002122547290985E-2
1.458560638507043E-1 -1.0287395512384799E-1
1.3154575037004196E-1 -1.1403661289937274E-1
1.1656987097110168E-1 -1.2347586472695501E-1
1.0111566700763627E-1 -1.3117784005827482E-1
8.536623161558839E-2 -1.3714732952624376E-1
6.949881550972159E-2 -1.4140683010199254E-1
5.36832800671005E-2 -1.4399545101180092E-1
3.8080697315917775E-2 -1.449677018859969E-1
2.2842111617122646E-2 -1.4439218031171672E-1
8.107464559760769E-3 -1.423501763508843E-1
-5.995312742901559E-3 -1.3893421410906667E-1
-2.0659364347554965E-1 2.9337232172394345E-1
-1.9351038916817543E-2 -1.3424654747903073E-1
-2.066253640735641E-1 2.933763878860453E-1
-1.720040094861377E-1 3.048237224611853E-1
-1.3728837375546354E-1 3.1256450455680157E-1
-1.0284173339614529E-1 3.1669859846348714E-1
-6.90069721544464E-2 3.173583067923903E-1
-3.610402457599472E-2 3.147054336232153E-1
-4.427680537056071E-3 3.089281845192214E-1
2.57542440068944E-2 3.0023794330044057E-1
5.4202368721479065E-2 2.888659648118374E-1
8.070684598027911E-2 2.7506002198155993E-1
1.0508809923883945E-1 2.590810439175293E-1
1.271972126042484E-1 2.4119978039191942E-1
1.469159843929247E-1 2.216935258133069E-1
1.6415666053474448E-1 2.008429337681752E-1
1.7886136558514745E-1 1.789289507044934E-1
1.9100125253213254E-1 1.5622989477445406E-1
2.0057539347947684E-1 1.3301870307750654E-1
2.076094350592593E-1 1.0956036767029281E-1
2.121540442083563E-1 8.61095778566699E-2
2.1428317038156736E-1 6.290858321245571E-2
2.140921511336748E-1 4.018528879394071E-2
2.1169568833379743E-1 1.8151591287597326E-2
2.0722572197523695E-1 -2.9980386181513597E-3
2.008292289268182E-1 -2.3087724658698E-2
1.9266597256327178E-1 -4.1961103789758966E-2
1.829062299201088E-1 -5.948199883831771E-2
1.7172851938919578E-1 -7.55348484342101E-2
1.5931735296485597E-1 -9.002490378418125E-2
1.458610394196005E-1 -1.0287819890021314E-1
1.3154954871849794E-1 -1.1404130787512905E-1
1.1657246777014E-1 -1.2348090068726358E-1
1.0111705767824343E-1 -1.311831120792947E-1
8.536642826070205E-2 -1.3715274014011314E-1
6.949784733269371E-2 -1.41412289659204E-1
5.368118977808816E-2 -1.4400087911461318E-1
3.807753969660889E-2 -1.4497302871764098E-1
2.2837951369208423E-2 -1.443973466716089E-1
8.102374448385189E-3 -1.4235513453118756E-1
-6.001253747852342E-3 -1.3893892827527005E-1
-2.4077167602020574E-1 2.7815780840050325E-1
-1.9357747319047068E-2 -1.3425099388504708E-1
-2.4080445916335727E-1 2.7815871055663566E-1
-2.066557442900112E-1 2.9338079501363507E-1
-1.720316999025371E-1 3.048311578692232E-1
-1.373131562592764E-1 3.1257448973488083E-1
-1.0286345653587538E-1 3.167106611305023E-1
-6.902554812647688E-2 3.1737198811460204E-1
-3.6119425446118236E-2 3.1472029463064344E-1
-4.439933786398843E-3 3.08943811629856E-1
2.574506033349675E-2 3.0025395292884394E-1
5.419613150910924E-2 2.888820070525165E-1
8.070339264936913E-2 2.750757833060275E-1
1.0508723354517974E-1 2.590962490294614E-1
1.2719871061127008E-1 2.412141931632605E-1
1.469196003720663E-1 2.2170694939507862E-1
1.6416213268669108E-1 2.0085521003303017E-1
1.7886842161171612E-1 1.789399588565941E-1
1.9100961507820516E-1 1.5623954966271245E-1
2.0058478501854157E-1 1.3302695277126664E-1
2.0761958252713225E-1 1.0956719080254432E-1
2.1216468304698768E-1 8.611498068973708E-2
2.1429404833032759E-1 6.291259654339952E-2
2.1410303131282227E-1 4.01879647447121E-2
2.1170635187625E-1 1.8153000109785274E-2
2.0723597003860159E-1 -2.9978116413533658E-3
2.0083888470442676E-1 -2.3088582633444443E-2
1.9267488180717612E-1 -4.196294077078691E-2
1.8291426137887196E-1 -5.9484702031398634E-2
1.7173556492123784E-1 -7.553830189907641E-2
1.5932332922981307E-1 -9.002899027328959E-2
1.4586588399545902E-1 -1.0288280190108073E-1
1.3155322108438622E-1 -1.1404631382020267E-1
1.165749477358182E-1 -1.2348620067916727E-1
1.011183429241647E-1 -1.3118860347314218E-1
8.53665339903125E-2 -1.3715832760458066E-1
6.949680367871283E-2 -1.4141788669020536E-1
5.367903998152508E-2 -1.4400640971735917E-1
3.8074338021490524E-2 -1.449784270544173E-1
2.283376134943924E-2 -1.444025583721856E-1
8.097266986098152E-3 -1.4236011714488997E-1
-6.007202076141676E-3 -1.3894365154186744E-1
-2.740827737295623E-1 2.5913788461605275E-1
-1.9364455986249876E-2 -1.3425543993594244E-1
-2.741163171862482E-1 2.5913545199109556E-1
-2.408359214053375E-1 2.781600987881378E-1
-2.0668478388625017E-1 2.933855401641699E-1
-1.720580451741712E-1 3.048387874038945E-1
-1.373366038827964E-1 3.1258453109413403E-1
-1.0288386915168445E-1 3.167226494768521E-1
-6.904285108897887E-2 3.173854733833839E-1
-3.6133602801804325E-2 3.1473484771383053E-1
-4.451023780679414E-3 3.0895902967872696E-1
2.5736970488173895E-2 3.0026946371532126E-1
5.4190911028430586E-2 2.888974723930276E-1
8.070087288960107E-2 2.750909015851713E-1
1.0508721386562782E-1 2.591107567829358E-1
1.2720096447127244E-1 2.4122786588297784E-1
1.4692388077485274E-1 2.2171960145820102E-1
1.6416817831825337E-1 2.0086669391887887E-1
1.7887596218629534E-1 1.7895016381793807E-1
1.9101837627502913E-1 1.5624839979380556E-1
2.0059449385530706E-1 1.3303440462939514E-1
2.07629971350305E-1 1.0957323072571602E-1
2.1217549363131635E-1 8.611962185301851E-2
2.1430503542786258E-1 6.291587584353897E-2
2.141139654975427E-1 4.018993961888615E-2
2.1171702195045358E-1 1.8153745417630558E-2
2.0724618558993932E-1 -2.9982072785345224E-3
2.0084847613615936E-1 -2.3090018351242848E-2
1.9268370214987024E-1 -4.196530822329548E-2
1.8292218703698032E-1 -5.948788729764124E-2
1.7174249519524373E-1 -7.554218826128636E-2
1.593291854784825E-1 -9.003345978821631E-2
1.458706097062026E-1 -1.0288773842733236E-1
1.3155678037181126E-1 -1.1405160521938057E-1
1.1657732358310781E-1 -1.2349173964833951E-1
1.0111953637176123E-1 -1.311942893410551E-1
8.536656207031E-2 -1.3716406860161712E-1
6.949569738104329E-2 -1.4142359981241487E-1
5.367684268972467E-2 -1.44012023007067E-1
3.807110336472938E-2 -1.4498387932783896E-1
2.2829551480640562E-2 -1.4440780045582113E-1
8.092150759682547E-3 -1.4236511196304444E-1
-6.013150658796588E-3 -1.3894837461699228E-1
-3.061201559878046E-1 2.363244766120642E-1
-1.9371159363909478E-2 -1.3425987934566957E-1
-3.0615413390138285E-1 2.3631856597639692E-1
-2.7414857434784307E-1 2.5913365499223084E-1
-2.4086606208963643E-1 2.7816196985623604E-1
-2.0671248256777758E-1 2.9339061813891837E-1
-1.7208304586047296E-1 3.048466044278239E-1
-1.3735871839025607E-1 3.125946209412321E-1
-1.029029744534917E-1 3.167345551765951E-1
-6.905888579642143E-2 3.173987540342197E-1
-3.614656306416581E-2 3.147490844485267E-1
-4.460958391687596E-3 3.089738307050338E-1
2.572996522140179E-2 3.002844684519496E-1
5.41866968703426E-2 2.889123546572165E-1
8.069927543799259E-2 2.7510537188805273E-1
1.0508802854268712E-1 2.591245637161744E-1
1.2720396198063824E-1 2.4124079667869497E-1
1.4692881363847116E-1 2.2173148182973054E-1
1.641747859201709E-1 2.0087738712007255E-1
1.7888397633169106E-1 1.789595692744155E-1
1.910275265406517E-1 1.5625645092546775E-1
2.006045117661925E-1 1.330410665838157E-1
2.0764059493596965E-1 1.0957849761732003E-1
2.121864712378947E-1 8.612351379775832E-2
2.143161288426991E-1 6.291843583172815E-2
2.1412495283099256E-1 4.0191230319759935E-2
2.1172770016615453E-1 1.8153846182742583E-2
2.0725637130043245E-1 -2.9992034671594814E-3
2.0085800777288018E-1 -2.3092008846722332E-2
1.9269244064548738E-1 -4.196818209987445E-2
1.8293001555831778E-1 -5.949152921635082E-2
1.7174931947423835E-1 -7.554648043471691E-2
1.5933493282547803E-1 -9.003828486462954E-2
1.4587522861614016E-1 -1.0289298135804788E-1
1.3156023904238914E-1 -1.1405715479490974E-1
1.1657960865645906E-1 -1.2349749058871139E-1
1.0112065133550202E-1 -1.3120014429996016E-1
8.536652550111583E-2 -1.3716993873198807E-1
6.9494541111661E-2 -1.414294067674795E-1
5.3674609817412E-2 -1.4401769865353403E-1
3.806784674931362E-2 -1.4498936782643823E-1
2.282533159844513E-2 -1.4441305777062396E-1
8.087034415748434E-3 -1.4237010677645773E-1
-6.019092289042675E-3 -1.389530882418437E-1
-3.3647004561806815E-1 2.0977138052155767E-1
-1.9377851867388527E-2 -1.3426430580129878E-1
-3.365041108968799E-1 2.0976187911463967E-1
-3.0618687602466205E-1 2.3631344356759926E-1
-2.741795440839293E-1 2.5913249011300943E-1
-2.408948802367697E-1 2.781643181577122E-1
-2.0673884010502838E-1 2.933960216913819E-1
-1.7210670290007352E-1 3.0485460046776675E-1
-1.3737950220942446E-1 3.126047500518979E-1
-1.0292077653323267E-1 3.1674636868755646E-1
-6.907365816337108E-2 3.174118206241627E-1
-3.615831381109266E-2 3.1476299585298323E-1
-4.4697468286332715E-3 3.0898820653303594E-1
2.5724033910015983E-2 3.002989600669414E-1
5.418347723379988E-2 2.8892664815348534E-1
8.069858767425342E-2 2.7511919008165603E-1
1.0508966413055046E-1 2.5913766746591316E-1
1.2720768991102036E-1 2.4125298515426788E-1
1.469343858785978E-1 2.2174259219064116E-1
1.641819429948406E-1 2.0088729355518503E-1
1.788924527264671E-1 1.7896818135013143E-1
1.91037055554553E-1 1.5626371154507648E-1
2.0061482993219476E-1 1.3304694952117993E-1
2.0765144621465922E-1 1.0958300476252769E-1
2.1219761060495568E-1 8.612667217675082E-2
2.1432732534149135E-1 6.292029448567091E-2
2.141359923329437E-1 4.0191857308856035E-2
2.117383870422077E-1 1.815332508514441E-2
2.0726653016840585E-1 -3.0007766583963215E-3
2.0086748487181857E-1 -2.309452821585499E-2
1.9270110406846533E-1 -4.197153508322957E-2
1.829377553392285E-1 -5.949559942331059E-2
1.7175604755607152E-1 -7.555114986530732E-2
1.593405823028979E-1 -9.004343652471662E-2
1.4587975270596404E-1 -1.0289850115818518E-1
1.315636098952992E-1 -1.1406293342988709E-1
1.1658181608057984E-1 -1.2350342563286273E-1
1.0112170100747925E-1 -1.312061414755901E-1
8.536643729958507E-2 -1.371759131612845E-1
6.949334724548395E-2 -1.4143528410489817E-1
5.367235331707703E-2 -1.4402341635295815E-1
3.8064579048901204E-2 -1.4499487461516228E-1
2.2821111678202874E-2 -1.4441831526346804E-1
8.081926516909104E-3 -1.423750893745695E-1
-6.0250198084227935E-3 -1.3895778312850707E-1
-3.6471581119184227E-1 1.7957582245688786E-1
-1.938452785828688E-2 -1.342687129345521E-1
-3.647495982384178E-1 1.7956265081106929E-1
-3.3653700746655096E-1 2.0975332011966152E-1
-3.062183806889107E-1 2.363091056217154E-1
-2.742092246351737E-1 2.591319512852733E-1
-2.409223746846325E-1 2.7816713577974816E-1
-2.0676385642570802E-1 2.9340174152174653E-1
-1.7212901774494607E-1 3.048627653354985E-1
-1.3739895855481202E-1 3.1261490781152046E-1
-1.0293728056729937E-1 3.167580794219166E-1
-6.908717524684592E-2 3.1742466299900945E-1
-3.616886397296152E-2 3.1477657259520164E-1
-4.4773997284043715E-3 3.090021489966685E-1
2.57191644450269E-2 3.0031293186517405E-1
5.418123892393062E-2 2.889403478595702E-1
8.06987954368294E-2 2.751323531624037E-1
1.0509210623807248E-1 2.5915006713153244E-1
1.27212133652628E-1 2.4126443264651018E-1
1.4694058318857262E-1 2.2175293628616521E-1
1.64189635967063E-1 2.0089641941091216E-1
1.7890137877543044E-1 1.7897600879362358E-1
1.9104695209270822E-1 1.5627019295430716E-1
2.006254387168781E-1 1.3305206729789754E-1
2.0766251735412064E-1 1.0958676854698908E-1
2.1220890590637267E-1 8.612911585056991E-2
2.1433862123840383E-1 6.292147307641019E-2
2.1414708224961082E-1 4.0191843906817E-2
2.117490830791515E-1 1.8152207129468134E-2
2.0727666499859795E-1 -3.0028994762754876E-3
2.0087691215950518E-1 -2.3097547705265457E-2
1.9270969901952315E-1 -4.197533723358405E-2
1.829454147643084E-1 -5.950006709379043E-2
1.7176268939529316E-1 -7.555616520803884E-2
1.5934614495327998E-1 -9.004888315290896E-2
1.4588419391495624E-1 -1.029042666837558E-1
1.3156690561830567E-1 -1.1406891099056235E-1
1.1658395889073227E-1 -1.2350951582584355E-1
1.0112269852721967E-1 -1.3121225364485062E-1
8.536631047239061E-2 -1.3718196662271018E-1
6.949212860570837E-2 -1.4144120951768385E-1
5.3670084877887984E-2 -1.4402915524908436E-1
3.8061311393080416E-2 -1.4500038167560333E-1
2.28169015628286E-2 -1.444235578308277E-1
8.076835687049725E-3 -1.423800475580762E-1
-6.0309259999239365E-3 -1.3896244998670657E-1
-3.9044235265974964E-1 1.458796263041223E-1
-1.9391181616861028E-2 -1.3427309429382195E-1
-3.904754804284214E-1 1.4586274077471653E-1
-3.647823008092493E-1 1.795505757290421E-1
-3.36568733042726E-1 2.0974569950866656E-1
-3.0624864522573353E-1 2.363055456135448E-1
-2.7423761372916966E-1 2.591320299345861E-1
-2.409485441689053E-1 2.7817041257369457E-1
-2.0678753178407477E-1 2.934077664246107E-1
-1.721499924799094E-1 3.048710872614397E-1
-1.3741709162296914E-1 3.126250823774348E-1
-1.029524928465651E-1 3.167696759141222E-1
-6.909944545674429E-2 3.1743727050260523E-1
-3.617822395763464E-2 3.1478980521197714E-1
-4.483929262889769E-3 3.090156501642611E-1
2.5715343202581058E-2 3.0032637772198706E-1
5.4179967028689886E-2 2.889534498039691E-1
8.069988317654611E-2 2.751448593745985E-1
1.050953389040058E-1 2.591617634084827E-1
1.2721727725696202E-1 2.412751424514423E-1
1.46947390058681E-1 2.2176252006476393E-1
1.6419785017525848E-1 2.0090477339067472E-1
1.7891074092786194E-1 1.7898306305742054E-1
1.9105720402254037E-1 1.5627590935094904E-1
2.0063632774574922E-1 1.3305643683067525E-1
2.0767379991880458E-1 1.095898085279728E-1
2.1222035080928037E-1 8.613086689253122E-2
2.1435001240609686E-1 6.29219961667379E-2
2.1415822060819303E-1 4.019121648874677E-2
2.1175978880516264E-1 1.815052101527761E-2
2.072867783592757E-1 -3.0055417094943184E-3
2.008862942223802E-1 -2.3101035860375492E-2
1.9271823204408187E-1 -4.1979556086067474E-2
1.8295300202700018E-1 -5.950489910791533E-2
1.7176925472752355E-1 -7.556149297134249E-2
1.5935163170882075E-1 -9.005459174870997E-2
1.4588856422090785E-1 -1.0291024562883137E-1
1.315701388210969E-1 -1.1407505627034642E-1
1.165860501182257E-1 -1.2351573140096171E-1
1.0112365704689301E-1 -1.312184528199888E-1
8.536615797311208E-2 -1.3718807324008095E-1
6.949089745220399E-2 -1.4144715879144398E-1
5.366781655169643E-2 -1.4403489453343887E-1
3.8058054719880746E-2 -1.4500587116236432E-1
2.2812711158261743E-2 -1.4442877040654425E-1
8.07177059093833E-3 -1.4238496916296198E-1
-6.036803573365072E-3 -1.3896707951573675E-1
-4.132406949893253E-1 1.088699563656813E-1
-1.939780731535161E-2 -1.342774433173112E-1
-4.1327277036224197E-1 1.0884935144292089E-1
-3.9050762557652996E-1 1.4584710424622807E-1
-3.6481391591837453E-1 1.795395929471875E-1
-3.365992839135419E-1 2.097390103184151E-1
-3.062776660906783E-1 2.3630275431622463E-1
-2.7426470872018455E-1 2.5913271506175284E-1
-2.409733875326152E-1 2.781741362905357E-1
-2.0680986694483716E-1 2.9341408343180375E-1
-1.7216963008824784E-1 3.048795530690052E-1
-1.3743390667406885E-1 3.1263526085516E-1
-1.0296642098749147E-1 3.1678114602712537E-1
-6.91104786900879E-2 3.174496321809956E-1
-3.618640574452153E-2 3.1480268432386854E-1
-4.48934921618366E-3 3.090287025470024E-1
2.5712554829655832E-2 3.0033929238667717E-1
5.4179645169519675E-2 2.8896595111717693E-1
8.070183377091271E-2 2.7515670848392015E-1
1.0509934467785038E-1 2.591727588438867E-1
1.272231034221886E-1 2.412851199821546E-1
1.469547898199404E-1 2.217713519560251E-1
1.6420656973997486E-1 2.009123667848876E-1
1.7892052456505292E-1 1.7898935840811717E-1
1.9106779837075016E-1 1.5628087791723994E-1
2.006474858916006E-1 1.3306007812145698E-1
2.0768528483463336E-1 1.0959214739519335E-1
2.1223193853414568E-1 8.61319507105988E-2
2.1436149412905692E-1 6.292189095227495E-2
2.1416940530534612E-1 4.0190004694733834E-2
2.1177050435276626E-1 1.8148298241968286E-2
2.0729687258905305E-1 -3.0086704990282603E-3
2.008956355513934E-1 -2.310495867382115E-2
1.9272670956977844E-1 -4.198415686930817E-2
1.8296052528576673E-1 -5.95100602024549E-2
1.717757531726471E-1 -7.556709830520394E-2
1.593570535267758E-1 -9.006052783855194E-2
1.4589287554220026E-1 -1.029164045125271E-1
1.3157332213084913E-1 -1.1408133709993044E-1
1.1658810277428112E-1 -1.2352204190579329E-1
1.0112458967562564E-1 -1.3122471061670007E-1
8.53659927164359E-2 -1.371942069061787E-1
6.948966642100486E-2 -1.4145310857024296E-1
5.366556018592473E-2 -1.4404061365223184E-1
3.80548200314068E-2 -1.4501132517957935E-1
2.280855041136952E-2 -1.4443393799768514E-1
8.066739950624797E-3 -1.4238984209974692E-1
-6.0426451409278745E-3 -1.3897166240173384E-1
-4.3271275056393427E-1 6.877960494192809E-2
-1.9404398991278035E-2 -1.342817533077194E-1
-4.32743372033986E-1 6.875531525478668E-2
-4.1330398294867843E-1 1.08830144473305E-1
-3.905387843255916E-1 1.4583271225108457E-1
-3.6484443867086896E-1 1.7952969509279104E-1
-3.3662865508222056E-1 2.0973324269201699E-1
-3.063054390316564E-1 2.3630071988171023E-1
-2.742905067839516E-1 2.591339933567619E-1
-2.4099690389246856E-1 2.781782927058212E-1
-2.0683086331596853E-1 2.9342067793995374E-1
-1.721879345020757E-1 3.0488814832876737E-1
-1.374494102444315E-1 3.126454294926607E-1
-1.0297907410357386E-1 3.1679247716048403E-1
-6.912028647036639E-2 3.1746173701933705E-1
-3.619342299789422E-2 3.1481520084667214E-1
-4.4936751356248E-3 3.090412993769673E-1
2.571078233060822E-2 3.003516716158858E-1
5.418025525052743E-2 2.889778503460523E-1
8.070462847161188E-2 2.7516790199212027E-1
1.0510410463116061E-1 2.5918305800143066E-1
1.272295934932716E-1 2.4129437300787535E-1
1.469627643544596E-1 2.2177944273769484E-1
1.642157777095399E-1 2.0091921367609905E-1
1.7893071417166606E-1 1.7899491203511614E-1
1.910787213672405E-1 1.5628511887803023E-1
2.0065890134350056E-1 1.330630142845848E-1
2.0769696258688827E-1 1.0959381114989047E-1
2.1224366157718547E-1 8.613239525543015E-2
2.14373061615017E-1 6.292118805301262E-2
2.1418063389495268E-1 4.01882413931461E-2
2.1178122961963905E-1 1.8145572937648968E-2
2.0730694991742055E-1 -3.0122503956553585E-3
2.0090494052352925E-1 -2.310927979975703E-2
1.9273513797289502E-1 -4.198910270662234E-2
1.82967992704826E-1 -5.95155137878352E-2
1.7178219433856398E-1 -7.557294473286023E-2
1.5936242135913328E-1 -9.006665566835398E-2
1.458971398097654E-1 -1.0292270884470689E-1
1.315764681469305E-1 -1.1408772059176162E-1
1.1659012985575719E-1 -1.2352841638063086E-1
1.0112550952025201E-1 -1.3123099828781168E-1
8.536582770652944E-2 -1.3720034139068654E-1
6.94884481150735E-2 -1.4145903567121174E-1
5.366332767330949E-2 -1.4404629193294857E-1
3.8051618360867644E-2 -1.4501672593110393E-1
2.280442932428702E-2 -1.4443904577724345E-1
8.061752561172546E-3 -1.423946543501914E-1
-6.048443174906266E-3 -1.3897618932801026E-1
-4.484762071773164E-1 2.5886798421275573E-2
-1.9410950520946657E-2 -1.3428601740850607E-1
-4.4850496881846996E-1 2.5858900402799187E-2
-4.3277326877448025E-1 6.873256712295346E-2
-4.133343280856637E-1 1.0881233080108221E-1
-3.9056895045080997E-1 1.4581955704568433E-1
-3.648738624241219E-1 1.7952087171717976E-1
-3.366568404576014E-1 2.097283839579781E-1
-3.0633195930131096E-1 2.3629942794670905E-1
-2.743150051336474E-1 2.5913584931608163E-1
-2.4101909287344958E-1 2.781828657572229E-1
-2.0685052325670725E-1 2.9342753392244475E-1
-1.7220491088532938E-1 3.0489685756740986E-1
-1.3746361033701446E-1 3.126555738790828E-1
-1.0299046295346725E-1 3.168036564815843E-1
-6.912888205044247E-2 3.17473574125423E-1
-3.61992912362729E-2 3.148273462723476E-1
-4.496924400692403E-3 3.0905343477670444E-1
2.571000687885428E-2 3.003635124527566E-1
5.418177744202605E-2 2.8898914764834566E-1
8.070824688987256E-2 2.7517844330638336E-1
1.0510959835269737E-1 2.591926676955037E-1
1.2723672738883893E-1 2.4130291158828132E-1
1.4697129445656398E-1 2.2178680601651438E-1
1.64225456061062E-1 2.0092533096842613E-1
1.7894129328272662E-1 1.7899974409885513E-1
1.910899583704033E-1 1.5628865546411178E-1
2.00670561699881E-1 1.3306527164233697E-1
2.0770882276052727E-1 1.0959482835298232E-1
2.122555123119185E-1 8.613223204749082E-2
2.1438470964728384E-1 6.291992133707344E-2
2.1419190363441618E-1 4.0185961769626154E-2
2.1179196434129158E-1 1.8142381809536336E-2
2.0731701245190007E-1 -3.0162435398435497E-3
2.009142134729318E-1 -2.311396070582249E-2
1.9274352359153307E-1 -4.199435497585202E-2
1.829754125329332E-1 -5.9521221553452026E-2
1.717885880032722E-1 -7.557899411998703E-2
1.593677461590955E-1 -9.007293850878864E-2
1.4590136893953606E-1 -1.0292912334079574E-1
1.3157958948573498E-1 -1.1409417326343682E-1
1.1659214436160686E-1 -1.2353482348860552E-1
1.011264296530494E-1 -1.312372869310292E-1
8.53656758879746E-2 -1.372064505306501E-1
6.948725511523648E-2 -1.4146491675954234E-1
5.3661130905904735E-2 -1.440519087542557E-1
3.804846078649895E-2 -1.4502205589932907E-1
2.280035787710276E-2 -1.4444407906698492E-1
8.056817393510846E-3 -1.4239939402174973E-1
-6.054190009851932E-3 -1.389806509748589E-1
-4.601694948863322E-1 -1.9485500565291074E-2
-1.9417455591882123E-2 -1.3429022858225817E-1
-4.601959905743625E-1 -1.9516887415977804E-2
-4.4853316212241434E-1 2.5832680241738234E-2
-4.328024351343045E-1 6.871135575676827E-2
-4.133637980588884E-1 1.0879590238308676E-1
-3.905981154578022E-1 1.458076276479271E-1
-3.6490217900196725E-1 1.795131093709645E-1
-3.3668383309308114E-1 2.0972441873307576E-1
-3.063572219059877E-1 2.3629886175655188E-1
-2.743382012674578E-1 2.5913826541934165E-1
-2.410399548449098E-1 2.781878377530657E-1
-2.0686885015836284E-1 2.9343463408236764E-1
-1.7222056577158676E-1 3.0490566445372164E-1
-1.374765166372513E-1 3.126656792469562E-1
-1.0300060005868596E-1 3.168146710910441E-1
-6.913628060473632E-2 3.1748513302470827E-1
-3.620402788769771E-2 3.148391128222223E-1
-4.499116281950458E-3 3.090651039926232E-1
2.5710207769821136E-2 3.0037481342696415E-1
5.41841900976662E-2 2.8899984497492703E-1
8.071266701678452E-2 2.751883379587335E-1
1.0511580380116932E-1 2.5920159693367406E-1
1.272444836642471E-1 2.413107484978978E-1
1.4698035965586706E-1 2.2179345810540177E-1
1.642355856556526E-1 2.009307384517902E-1
1.7895224446637392E-1 1.790038777078489E-1
1.9110149413040964E-1 1.5629151417408482E-1
2.0068245363161846E-1 1.330668791581067E-1
2.0772085478294194E-1 1.0959523105971299E-1
2.122674826161294E-1 8.61314954394598E-2
2.143964326755115E-1 6.291812684647309E-2
2.142032115820699E-1 4.0183203579727246E-2
2.1180270813885266E-1 1.81387641382494E-2
2.0732706219499905E-1 -3.020609901738442E-3
2.0092345863888242E-1 -2.3118961027263654E-2
1.927518727710002E-1 -4.199987331311792E-2
1.8298279267374531E-1 -5.9527143218590754E-2
1.717949438551648E-1 -7.558520771991142E-2
1.5937303885486914E-1 -9.007933875815764E-2
1.4590557486645322E-1 -1.0293561207899829E-1
1.315826987393984E-1 -1.1410066127200617E-1
1.1659415929348695E-1 -1.2354123169232964E-1
1.0112736325430072E-1 -1.3124354768139623E-1
8.536555024883548E-2 -1.372125081789666E-1
6.948609984426203E-2 -1.4147072809730293E-1
5.36589818548264E-2 -1.440574440398788E-1
3.804535839190581E-2 -1.4502729781241053E-1
2.279634637630244E-2 -1.4444902341808402E-1
8.051943500700702E-3 -1.42404049380412E-1
-6.059877803914428E-3 -1.389850380174677E-1
-4.6745678173522137E-1 -6.697081335729768E-2
-1.9423907676832643E-2 -1.342943795923296E-1
-4.6748060959151916E-1 -6.700552555511431E-2
-4.6022209263455444E-1 -1.954646938253667E-2
-4.4856078033525915E-1 2.5808133076920883E-2
-4.328308617387124E-1 6.869167285673107E-2
-4.133923823026639E-1 1.0878084777724806E-1
-3.9062626882627816E-1 1.45796909908314E-1
-3.6492937896305305E-1 1.795063916923705E-1
-3.3670962547550665E-1 2.0972132904773708E-1
-3.063812218850954E-1 2.362990023045526E-1
-2.743600932453446E-1 2.591412222750788E-1
-2.410594911527157E-1 2.781931895417471E-1
-2.0688584882144503E-1 2.9344196009582E-1
-1.7223490738472885E-1 3.049145520555977E-1
-1.3748814058114692E-1 3.1267573049773456E-1
-1.0300949991935339E-1 3.1682550835340606E-1
-6.914249932040265E-2 3.174964038122927E-1
-3.620765240277527E-2 3.1485049369370066E-1
-4.500272079123646E-3 3.0907630362723526E-1
2.571136233209618E-2 3.003855747735538E-1
5.418746981733162E-2 2.890099462559052E-1
8.071786503782614E-2 2.7519759358087437E-1
1.0512269752099081E-1 2.5920985733938373E-1
1.272528394913115E-1 2.4131789913225643E-1
1.4698993821584214E-1 2.2179941812541387E-1
1.6424614630904547E-1 2.009354588333533E-1
1.7896354956175778E-1 1.7900733912813577E-1
1.911133122571561E-1 1.5629372399837854E-1
2.0069456350224868E-1 1.3306786914584195E-1
2.0773304749539157E-1 1.0959505408613E-1
2.1227956395709446E-1 8.613022239280142E-2
2.1440822488480887E-1 6.291584346591664E-2
2.1421455461605482E-1 4.0180007406088396E-2
2.1181346043276647E-1 1.813476130599424E-2
2.0733710106075937E-1 -3.025307520667202E-3
2.0093268025035102E-1 -2.312423861459469E-2
1.9276019171625028E-1 -4.2005615833322345E-2
1.8299014137369388E-1 -5.9533237754335847E-2
1.718012715135512E-1 -7.559154567423923E-2
1.5937831039431538E-1 -9.008581814735296E-2
1.45909769498683E-1 -1.0294213879613869E-1
1.315858085268125E-1 -1.141071504961998E-1
1.1659618764549437E-1 -1.2354760952191804E-1
1.0112832340974073E-1 -1.3124975178248133E-1
8.536546375214477E-2 -1.3721848849041768E-1
6.948499507349783E-2 -1.4147644753964164E-1
5.365689248487182E-2 -1.4406287782293054E-1
3.804232249573604E-2 -1.4503243464167972E-1
2.279240507551058E-2 -1.4445386473758212E-1
8.047140109431992E-3 -1.4240860885214437E-1
-6.065498519191533E-3 -1.389893411375712E-1
-4.700329454845679E-1 -1.1616090118239002E-1
-1.9430300006814668E-2 -1.3429846298670015E-1
-4.700537125098723E-1 -1.1619873090876359E-1
-4.6750423670073876E-1 -6.703831721580898E-2
-4.602477930785773E-1 -1.9574251341476917E-2
-4.485878122407227E-1 2.5785250455119826E-2
-4.328585357162419E-1 6.867350663115879E-2
-4.134200676757314E-1 1.0876715223512066E-1
-3.906533983143006E-1 1.4578738659284385E-1
-3.649554519483554E-1 1.795006996180876E-1
-3.367342098178907E-1 2.097190944404132E-1
-3.064039546199471E-1 2.3629982852058645E-1
-2.743806799682071E-1 2.591446988344367E-1
-2.410777044299766E-1 2.781989006987576E-1
-2.0690152562940547E-1 2.9344949281510785E-1
-1.7224794579467886E-1 3.0492350305813826E-1
-1.3749849568439637E-1 3.126857126345774E-1
-1.0301717916171645E-1 3.16836156017801E-1
-6.914755751788226E-2 3.175073774074488E-1
-3.621018636160486E-2 3.1486148326906743E-1
-4.500415162701363E-3 3.090870318251233E-1
2.5713446166991297E-2 3.0039579826035206E-1
5.4191591503672414E-2 2.890194573517908E-1
8.072381570715756E-2 2.7520622034621084E-1
1.0513025442136167E-1 2.592174630568642E-1
1.2726177064049982E-1 2.4132438163020645E-1
1.4700000722202297E-1 2.218047080514479E-1
1.6425711684075192E-1 2.0093951780299044E-1
1.7897518914208652E-1 1.7901015720943608E-1
1.9112539601955222E-1 1.5629531726272938E-1
2.0070687701960233E-1 1.330682766859821E-1
2.0774538926872407E-1 1.0959433496405828E-1
2.1229174748383042E-1 8.612845253965627E-2
2.144200802107061E-1 6.291311254102842E-2
2.1422592941176022E-1 4.0176415732539474E-2
2.118242205785717E-1 1.8130416663478144E-2
2.0734713092125764E-1 -3.030292620091635E-3
2.0094188244543879E-1 -2.3129749838665326E-2
1.927684867173802E-1 -4.201153945766464E-2
1.829974667076373E-1 -5.9539463194083715E-2
1.7180758062122486E-1 -7.559796729790536E-2
1.593835717502709E-1 -9.009233815323052E-2
1.4591396476070756E-1 -1.0294866684788538E-1
1.3158893142624598E-1 -1.1411360691195455E-1
1.165982424216811E-1 -1.2355392562369485E-1
1.011293232719891E-1 -1.312558707672004E-1
8.536542938689894E-2 -1.3722436605082805E-1
6.948395330005971E-2 -1.41482052049968E-1
5.3654874911929704E-2 -1.4406819061461631E-1
3.8039364410889155E-2 -1.450374500016748E-1
2.2788544418351243E-2 -1.4445858922743735E-1
8.042416627471786E-3 -1.4241306106013202E-1
-6.071043887880847E-3 -1.3899355105141364E-1
-4.6762846602388847E-1 -1.6660806499763126E-1
-1.9436625544316615E-2 -1.343024710855545E-1
-4.676457930038328E-1 -1.6664876036165788E-1
-4.700744895913219E-1 -1.1623453790316175E-1
-4.6752765365968585E-1 -6.706919308001984E-2
-4.602730786567935E-1 -1.960024177893007E-2
-4.4861424241239767E-1 2.576402035540711E-2
-4.3288544100874565E-1 6.865684184886624E-2
-4.1344683880583455E-1 1.0875479775350193E-1
-3.90679490319529E-1 1.457790375214285E-1
-3.64980386952915E-1 1.7949601124864084E-1
-3.367575784413682E-1 2.097176922020826E-1
-3.064254161579897E-1 2.3630131745102298E-1
-2.74399961500153E-1 2.591486725458224E-1
-2.410945988456436E-1 2.782049497669664E-1
-2.0691588874989655E-1 2.934572123639076E-1
-1.7225969301308053E-1 3.049324998026872E-1
-1.37507597614853E-1 3.126956108732568E-1
-1.0302365663311208E-1 3.168466025174976E-1
-6.915147680859249E-2 3.1751804576896875E-1
-3.621165351361043E-2 3.1487207724785277E-1
-4.499570995670746E-3 3.0909728833280187E-1
2.5716432541741677E-2 3.004054881461349E-1
5.419652778794503E-2 2.890283868653418E-1
8.073049210466474E-2 2.7521423090148617E-1
1.0513844815674107E-1 2.59224431037109E-1
1.2727125171760523E-1 2.413302169724388E-1
1.470105426792726E-1 2.2180935274938124E-1
1.642684749684397E-1 2.0094294377443522E-1
1.7898714330994991E-1 1.7901236394734288E-1
1.911377278951798E-1 1.5629632906702265E-1
2.0071937932731362E-1 1.3306813951109614E-1
2.0775786804329044E-1 1.0959311384088637E-1
2.123040240284588E-1 8.61262279063777E-2
2.144319923581481E-1 6.290997771921296E-2
2.142373325121457E-1 4.017247319427487E-2
2.118349878325379E-1 1.8125775408943355E-2
2.0735715352807133E-1 -3.035519981769995E-3
2.0095106936472396E-1 -2.31354498141791E-2
1.9277676404196E-1 -4.2017600301539317E-2
1.8300477676345742E-1 -5.9545776968300254E-2
1.718138810467216E-1 -7.560443250294278E-2
1.593888338253191E-1 -9.009885954142412E-2
1.4591817254773884E-1 -1.029551597207262E-1
1.3159208003943493E-1 -1.1411999660274255E-1
1.166003366540685E-1 -1.2356014902276606E-1
1.0113037596387878E-1 -1.3126187662181285E-1
8.536546021258913E-2 -1.3723011585302464E-1
6.948298727513692E-2 -1.4148751986162322E-1
5.365294130291236E-2 -1.4407336376735433E-1
3.8036495602692795E-2 -1.4504232788806237E-1
2.278477502089798E-2 -1.4446318347265594E-1
8.037782676196072E-3 -1.4241739488828536E-1
-6.0765053644149E-3 -1.3899765840816553E-1
-4.6001418228419394E-1 -2.178279942674979E-1
-1.944287694565535E-2 -1.3430639595343088E-1
-4.6002770798278364E-1 -2.1787125831852036E-1
-4.676633581405203E-1 -1.6668734586966785E-1
-4.700952655656786E-1 -1.1626832651519216E-1
-4.675508450010612E-1 -6.709816154332633E-2
-4.602979311232062E-1 -1.962445279495011E-2
-4.4864005156216225E-1 2.5744427226636887E-2
-4.3291155875807663E-1 6.864165989830409E-2
-4.13472678466275E-1 1.0874376318600434E-1
-3.907045302763724E-1 1.457718395936693E-1
-3.6500417283101616E-1 1.7949230232382954E-1
-3.3677972412046364E-1 2.097170975126547E-1
-3.064456035681589E-1 2.3630344441343573E-1
-2.744179393917416E-1 2.591531196372702E-1
-2.411101802710545E-1 2.782113142829216E-1
-2.06928948551427E-1 2.934650986514677E-1
-1.7227016341422782E-1 3.0494152500240895E-1
-1.3751546402601275E-1 3.1270541077164604E-1
-1.0302895329141587E-1 3.1685683687953325E-1
-6.915428101377419E-2 3.1752840200745824E-1
-3.621208036617972E-2 3.1488227343495984E-1
-4.497767476391914E-3 3.091070750363962E-1
2.572029271190554E-2 3.004146506411629E-1
5.4202249548634354E-2 2.890367452774961E-1
8.073786470490397E-2 2.7522164033206364E-1
1.0514724999152587E-1 2.592307806101566E-1
1.2728125529775342E-1 2.4133542868450952E-1
1.4702151899559918E-1 2.2181337974246212E-1
1.6428019744179698E-1 2.0094576809358536E-1
1.7899939123515407E-1 1.7901399408614074E-1
1.9115028975908782E-1 1.5629679703204413E-1
2.0073205504241304E-1 1.330674981504631E-1
2.0777047140059335E-1 1.0959143326751222E-1
2.1231638411657028E-1 8.612359311660736E-2
2.144439547936356E-1 6.290648489487292E-2
2.1424876016490768E-1 4.016822654195767E-2
2.1184576119880102E-1 1.812088461285282E-2
2.0736717055712392E-1 -3.0409427790282642E-3
2.0096024513012564E-1 -2.314129270478597E-2
1.927850299204942E-1 -4.202375364317099E-2
1.8301207970341085E-1 -5.9552135979365185E-2
1.7182018221638856E-1 -7.561089884075992E-2
1.5939410754750505E-1 -9.010534344179111E-2
1.4592240477353055E-1 -1.0296158105884286E-1
1.3159526694773568E-1 -1.141262860188356E-1
1.1660248325644693E-1 -1.2356624901846026E-1
1.0113149458215717E-1 -1.3126774182640558E-1
8.536556922208981E-2 -1.3723571346553143E-1
6.948210979010744E-2 -1.4149283017430309E-1
5.365110392544761E-2 -1.4407837907455068E-1
3.8033727695414826E-2 -1.4504705285449027E-1
2.278110772039392E-2 -1.4446763454299127E-1
8.033248166376414E-3 -1.424215993985472E-1
-6.081874094083692E-3 -1.39001653843838E-1
-4.47005850680715E-1 -2.6930315423787027E-1
-1.944904657436516E-2 -1.3431022944834053E-1
-4.4701523735926146E-1 -2.6934864777776096E-1
-4.60041716565923E-1 -2.179123434894491E-1
-4.676811484433497E-1 -1.667238257561055E-1
-4.7011602266626057E-1 -1.1630010498043175E-1
-4.675737893779076E-1 -6.712523461388806E-2
-4.6032232762624725E-1 -1.9646900069323868E-2
-4.48665216975639E-1 2.5726452037059436E-2
-4.329368677419042E-1 6.862793886581475E-2
-4.1349756811141136E-1 1.087340243558228E-1
-3.9072850310978485E-1 1.4576576706847602E-1
-3.6502679864111853E-1 1.7948954622488208E-1
-3.3680064048421393E-1 2.0971728359812453E-1
-3.064645152698629E-1 2.3630618324270922E-1
-2.744346167271986E-1 2.5915801498406577E-1
-2.411244569222298E-1 2.7821797171470375E-1
-2.0694071760919405E-1 2.934731314522687E-1
-1.7227937387555894E-1 3.0495056138515375E-1
-1.375221161328346E-1 3.1271509905887795E-1
-1.0303309344262007E-1 3.168668498767698E-1
-6.91559968408892E-2 3.175384408896198E-1
-3.6211495215925094E-2 3.1489207057973306E-1
-4.49503436381896E-3 3.09116395600989E-1
2.5724995963241584E-2 3.0042329413020474E-1
5.420872589240406E-2 2.8904454582030387E-1
8.074590314163786E-2 2.7522846635678533E-1
1.0515663057257106E-1 2.592365339785712E-1
1.2729175350156405E-1 2.4134004325861957E-1
1.4703291010418987E-1 2.218168195241643E-1
1.642922602380315E-1 2.0094802495267805E-1
1.79011911466878E-1 1.790150850396306E-1
1.9116306280748074E-1 1.5629676160022943E-1
2.0074488839245014E-1 1.3306639521184024E-1
2.0778318657508346E-1 1.0958933817319241E-1
2.1232881807754037E-1 8.61205943858632E-2
2.1445596098751935E-1 6.290268091261103E-2
2.142602089133496E-1 4.016372314534751E-2
2.1185654001727477E-1 1.8115791636995997E-2
2.0737718389291598E-1 -3.0465140242858318E-3
2.009694138452746E-1 -2.314723194251762E-2
1.9279329059731679E-1 -4.202995422977398E-2
1.8301938351067545E-1 -5.955849651806613E-2
1.7182649381247567E-1 -7.561732542221601E-2
1.5939940377830053E-1 -9.011175097058088E-2
1.4592667330496412E-1 -1.029678947667014E-1
1.3159850484345853E-1 -1.1413244235164605E-1
1.1660469534973635E-1 -1.2357219592245158E-1
1.0113269246316958E-1 -1.3127343992855012E-1
8.536576973343998E-2 -1.372411360911205E-1
6.948133366690956E-2 -1.4149796253828917E-1
5.364937518890622E-2 -1.4408321904307844E-1
3.803107251931868E-2 -1.4505161016385248E-1
2.277755332287335E-2 -1.4447193006130812E-1
8.028823135012578E-3 -1.42425664035702E-1
-6.0871409956642746E-3 -1.3900552838280228E-1
-4.284684518659433E-1 -3.2048671396926864E-1
-1.9455126415388917E-2 -1.343139631635057E-1
-4.2847339046262645E-1 -3.2053405690062975E-1
-4.470253680576726E-1 -2.693919133922293E-1
-4.600561937386334E-1 -2.1795125378613095E-1
-4.6769914358401227E-1 -1.667582080614441E-1
-4.701367361296421E-1 -1.1632988502306855E-1
-4.6759646001752114E-1 -6.71504278795564E-2
-4.6034624120141804E-1 -1.9667602822184535E-2
-4.4868971300830834E-1 2.571007231171909E-2
-4.329613449543726E-1 6.86156536543101E-2
-4.1352148827878754E-1 1.0872555419178684E-1
-3.907513936946577E-1 1.4576079164545258E-1
-3.6504825410079417E-1 1.7948771417402767E-1
-3.3682032240802384E-1 2.097182219854883E-1
-3.0648215145542396E-1 2.3630950651149482E-1
-2.744499992331194E-1 2.591633334208377E-1
-2.4113743918244301E-1 2.7822489865698824E-1
-2.0695121107819978E-1 2.934812905060621E-1
-1.722873437804544E-1 3.0495959231796216E-1
-1.375275767951599E-1 3.127246628477908E-1
-1.0303610338039564E-1 3.168766329696535E-1
-6.915665328673425E-2 3.175481586546604E-1
-3.620992887210191E-2 3.149014697243238E-1
-4.491403835209259E-3 3.091252559059301E-1
2.573050948408455E-2 3.0043142942209106E-1
5.421592398270531E-2 2.890518041137945E-1
8.07545753551525E-2 2.752347293640915E-1
1.0516655889118995E-1 2.592417160603399E-1
1.2730271690830738E-1 2.4134408988366374E-1
1.4704468861420203E-1 2.2181970526473171E-1
1.643046384696592E-1 2.009497510751117E-1
1.7902468176345981E-1 1.790156768648532E-1
1.9117602773488643E-1 1.5629626557725435E-1
2.007578631242689E-1 1.3306487591758834E-1
2.077960004937988E-1 1.0958687546103371E-1
2.1234131603716414E-1 8.611727987661542E-2
2.1446800407209798E-1 6.289861511581216E-2
2.1427167486006166E-1 4.015901253083787E-2
2.118673232156516E-1 1.811054587701702E-2
2.0738719512057122E-1 -3.0521850442249902E-3
2.009785796090897E-1 -2.3153220390023686E-2
1.928015522982012E-1 -4.203615647247672E-2
1.8302669631430207E-1 -5.9564815275989405E-2
1.718328255431828E-1 -7.562367125503723E-2
1.594047335850081E-1 -9.011804407842454E-2
1.459309901836346E-1 -1.029740657253275E-1
1.3160180627904716E-1 -1.1413843320985573E-1
1.1660698601073564E-1 -1.2357796069919276E-1
1.0113398288650675E-1 -1.312789451901405E-1
8.536607482258629E-2 -1.3724636051063127E-1
6.948067187333834E-2 -1.4150289724993148E-1
5.3647767665062296E-2 -1.4408786722707828E-1
3.802854173191759E-2 -1.4505598595693386E-1
2.2774123349507642E-2 -1.4447605797608679E-1
8.024518149547341E-3 -1.4242957868015904E-1
-6.092296568750454E-3 -1.3900927290268256E-1
-4.0432018227872646E-1 -3.708069927543988E-1
-1.9461108085492236E-2 -1.343175884548552E-1
-4.043203967816821E-1 -3.7085576550696453E-1
-4.2847934939262966E-1 -3.20579144634566E-1
-4.470362265250712E-1 -2.694329544429251E-1
-4.600711158979037E-1 -2.179879963473042E-1
-4.6771731504566333E-1 -1.6679050392287012E-1
-4.701573748674785E-1 -1.1635768188147072E-1
-4.67618825287735E-1 -6.717376048656559E-2
-4.603696413314889E-1 -1.9686583812984514E-2
-4.487135117211669E-1 2.569526226823278E-2
-4.329849660779089E-1 6.860477606654121E-2
-4.1354441917095125E-1 1.0871832290633524E-1
-3.9077318735229416E-1 1.4575688266375622E-1
-3.6506853004721296E-1 1.7948677546019534E-1
-3.3683876644052985E-1 2.097198827152005E-1
-3.0649851436914227E-1 2.363133858871656E-1
-2.7446409451759796E-1 2.5916904846490085E-1
-2.411491400715033E-1 2.782320717572862E-1
-2.0696044684852316E-1 2.934895559144166E-1
-1.7229409531697476E-1 3.049686018239404E-1
-1.3753187196070876E-1 3.127340905363976E-1
-1.0303801197703695E-1 3.1688617924565854E-1
-6.915628173812904E-2 3.175575532077181E-1
-3.6207414664559213E-2 3.1491047388941945E-1
-4.486910334153318E-3 3.0913366409390575E-1
2.57367984242167E-2 3.004390697041898E-1
5.422380938100177E-2 2.89058538391549E-1
8.076384755546827E-2 2.752404523530917E-1
1.051770024671314E-1 2.592463544211701E-1
1.273141148845862E-1 2.4134760040183675E-1
1.4705682617279905E-1 2.2182207273937413E-1
1.6431730636287736E-1 2.009509857927399E-1
1.7903767920981892E-1 1.7901581188472387E-1
1.911891647325592E-1 1.5629535381899415E-1
2.0077096264651426E-1 1.3306298741781622E-1
2.0780889982146591E-1 1.0958409383474205E-1
2.1235386788135083E-1 8.611369942125607E-2
2.144800771314209E-1 6.289433784551207E-2
2.1428315413081955E-1 4.015414522993185E-2
2.1187810980003882E-1 1.8105197251210705E-2
2.0739720591618407E-1 -3.0579070153937994E-3
2.009877465063038E-1 -2.315921058607032E-2
1.9280982123244206E-1 -4.204231494893811E-2
1.830340262383771E-1 -5.957104908521368E-2
1.7183918709939563E-1 -7.562989580433975E-2
1.594101078623726E-1 -9.012418495083763E-2
1.4593536725492529E-1 -1.0298005923278733E-1
1.3160518391762047E-1 -1.141442272477248E-1
1.166093683265421E-1 -1.235835153871073E-1
1.0113537915736935E-1 -1.3128423279411644E-1
8.536649768312665E-2 -1.3725136550978087E-1
6.948013746226687E-2 -1.415076163854151E-1
5.36462938128894E-2 -1.4409230798497952E-1
3.802614798343608E-2 -1.4506016678911424E-1
2.2770829383950364E-2 -1.444800072479275E-1
8.020343979957222E-3 -1.4243333357344923E-1
-6.097330955256124E-3 -1.3901287843251298E-1
-3.7453606995669253E-1 -4.196724028441658E-1
-1.946698279656835E-2 -1.3432109644788567E-1
-3.745313222433855E-1 -4.1972214923086326E-1
-4.0432192223538277E-1 -3.709022799440036E-1
-4.2848631025582506E-1 -3.2062197983832E-1
-4.470477857927047E-1 -2.6947177704700226E-1
-4.6008645040774193E-1 -2.1802258138696845E-1
-4.6773562705317684E-1 -1.6682072783092863E-1
-4.7017790213108096E-1 -1.1638351432712342E-1
-4.6764084932459343E-1 -6.719525510508993E-2
-4.6039249463499393E-1 -1.970386922503701E-2
-4.487365834385664E-1 2.568199281091988E-2
-4.330077061303445E-1 6.859527501857463E-2
-4.1356634119234176E-1 1.0871229808089813E-1
-3.9079387035182184E-1 1.457540072989523E-1
-3.650876188721219E-1 1.7948669764312727E-1
-3.368559711742016E-1 2.097222346566446E-1
-3.065136086230696E-1 2.363177920280945E-1
-2.744769130278299E-1 2.591751335450649E-1
-2.4115957545767258E-1 2.7823946776679864E-1
-2.0696844575873238E-1 2.934979082747609E-1
-1.7229965348195878E-1 3.049775748729269E-1
-1.3753503046742782E-1 3.127433718034214E-1
-1.0303885120475058E-1 3.1689548331777884E-1
-6.915491636683885E-2 3.1756662438567773E-1
-3.620398840523039E-2 3.149190882060736E-1
-4.481590518458512E-3 3.091416306354136E-1
2.574382604988458E-2 3.004462308076615E-1
5.423234554971713E-2 2.890647692955341E-1
8.077368428572836E-2 2.7524566089719454E-1
1.0518792751367514E-1 2.592504792522768E-1
1.273259156886088E-1 2.413506092628948E-1
1.4706929347734216E-1 2.218239602399125E-1
1.6433023746981282E-1 2.009517707319291E-1
1.790508803234026E-1 1.79015534678895E-1
1.9120245357151455E-1 1.5629407356421032E-1
2.0078417003803925E-1 1.330607787092503E-1
2.0782187099293314E-1 1.0958104368711144E-1
2.1236646337896853E-1 8.610990415674889E-2
2.1449217308302546E-1 6.28899007434281E-2
2.1429464273184115E-1 4.0149172459789384E-2
2.118888987522336E-1 1.809979610838532E-2
2.0740721795627884E-1 -3.0636307308780702E-3
2.0099691860585683E-1 -2.3165155160077562E-2
1.928181036317321E-1 -4.204838437062685E-2
1.830413813425105E-1 -5.957715496079688E-2
1.7184558814411116E-1 -7.5635959128702E-2
1.5941553752500887E-1 -9.013013673963065E-2
1.4593981646388576E-1 -1.029858416402908E-1
1.3160865040713715E-1 -1.1414979429923636E-1
1.1661185540723643E-1 -1.2358883312142371E-1
1.0113689405068203E-1 -1.3128927946000482E-1
8.536705148760304E-2 -1.372561310242861E-1
6.947974353772358E-2 -1.4151210236241304E-1
5.36449671460835E-2 -1.440965266904626E-1
3.802390372041018E-2 -1.4506414055624725E-1
2.2767683315485263E-2 -1.444837674048379E-1
8.016311779967408E-3 -1.4243691943501058E-1
-6.102233873274954E-3 -1.390163361847307E-1
-3.3915115822876774E-1 -4.6647686276505723E-1
-1.9472741327603595E-2 -1.3432447805238756E-1
-3.3914125268789613E-1 -4.665270931648964E-1
-3.7452818935774357E-1 -4.197696604876389E-1
-4.043247378348313E-1 -3.709465377687878E-1
-4.2849424244364975E-1 -3.2066256735360193E-1
-4.470600086670764E-1 -2.695083901178582E-1
-4.6010215628966933E-1 -2.18055022315403E-1
-4.677540372156318E-1 -1.6684889784185622E-1
-4.70198276261422E-1 -1.1640740463531124E-1
-4.676624927423491E-1 -6.721493783742691E-2
-4.6041476555802824E-1 -1.9719488830737125E-2
-4.487588974581315E-1 2.5670231832247353E-2
-4.3302954005567995E-1 6.858711657367893E-2
-4.135872355129577E-1 1.0870744493860676E-1
-3.908134304205919E-1 1.4575213072023846E-1
-3.651055149772794E-1 1.7948744686525028E-1
-3.3687193756723455E-1 2.0972524544837873E-1
-3.065274415786304E-1 2.36322695098336E-1
-2.744884681590169E-1 2.591815619889352E-1
-2.4116876427029635E-1 2.7824706377324887E-1
-2.069752311824913E-1 2.935063290562149E-1
-1.723040466903667E-1 3.049864975074304E-1
-1.375370841783394E-1 3.1275249777477643E-1
-1.0303865572904429E-1 3.169045415991948E-1
-6.915259401835719E-2 3.17575374051358E-1
-3.619968827068242E-2 3.149273201865351E-1
-4.475483256372203E-3 3.091491683328466E-1
2.575155344361422E-2 3.0045293058054384E-1
5.4241494321795175E-2 2.890705201296485E-1
8.078404868513211E-2 2.752503831570654E-1
1.0519929894734056E-1 2.592541232289263E-1
1.2733808649976572E-1 2.413531533213865E-1
1.4708206048518976E-1 2.2182540827691818E-1
1.643434044994326E-1 2.0095214978074546E-1
1.7906426111301596E-1 1.7901489199813753E-1
1.912158735877553E-1 1.562924736467724E-1
2.0079746807548338E-1 1.3305830029620164E-1
2.0783490020012357E-1 1.095777766983998E-1
2.1237909195529797E-1 8.61059468869183E-2
2.1450428491623585E-1 6.288535578854228E-2
2.1430613677190066E-1 4.0144145783966474E-2
2.1189968904658665E-1 1.8094393221498948E-2
2.0741723286352126E-1 -3.069307148250251E-3
2.010060999943696E-1 -2.317100698537327E-2
1.9282640580372332E-1 -4.205432000152258E-2
1.8304876975155793E-1 -5.9583091131197294E-2
1.718520382867332E-1 -7.564182217320344E-2
1.5942103351834894E-1 -9.013586358748008E-2
1.4594434974901568E-1 -1.029913805725256E-1
1.3161221841565776E-1 -1.1415510538833751E-1
1.1661445997593707E-1 -1.2359388857460214E-1
1.011385415400475E-1 -1.3129406304146063E-1
8.536775031553447E-2 -1.37260638187017E-1
6.947950425135489E-2 -1.4151633936874972E-1
5.3643800657114396E-2 -1.4410051009338878E-1
3.802182173234874E-2 -1.4506789605273468E-1
2.2764697412690046E-2 -1.4448732880993925E-1
8.012433141145803E-3 -1.424403275478537E-1
-6.106994594578395E-3 -1.3901963758908978E-1
-2.9826319965370635E-1 -5.106056455022416E-1
-1.9478373996531056E-2 -1.3432772398315784E-1
-2.9824798757816307E-1 -5.106558405632406E-1
-3.39133277979828E-1 -4.6657514006856554E-1
-3.7452664780528444E-1 -4.1981493706279954E-1
-4.043288089652275E-1 -3.7098854219226135E-1
-4.285031037634681E-1 -3.2070091438372383E-1
-4.470728484749188E-1 -2.6954280550886545E-1
-4.6011818502922897E-1 -2.1808533588630755E-1
-4.6777249757138184E-1 -1.6687503532663736E-1
-4.7021845126754525E-1 -1.1642937802145474E-1
-4.676837135674104E-1 -6.723283924312187E-2
-4.604364171325121E-1 -1.9733475363656605E-2
-4.4878042270281604E-1 2.5659944137155267E-2
-4.3305044337181897E-1 6.858026422861685E-2
-4.1360708462372375E-1 1.087037265021817E-1
-3.9083185719698343E-1 1.4575121646190534E-1
-3.651222151583905E-1 1.7948898782449818E-1
-3.3688666939646894E-1 2.0972888202198536E-1
-3.065400236415584E-1 2.363280649393958E-1
-2.744987764648407E-1 2.5918830722892144E-1
-2.4117672847334284E-1 2.782548374066533E-1
-2.069808309669481E-1 2.935148003833498E-1
-1.7230730622421928E-1 3.049953570807843E-1
-1.3753806791456613E-1 3.127614611347162E-1
-1.0303746308550868E-1 3.169133523525551E-1
-6.914935420264723E-2 3.175838062073258E-1
-3.61945549498775E-2 3.149351792254043E-1
-4.4686295437975695E-3 3.091562922023236E-1
2.5759939831363887E-2 3.004591897145432E-1
5.425121588024402E-2 2.8907581664826465E-1
8.07949024450804E-2 2.752546497519453E-1
1.0521108049772822E-1 2.5925732145974467E-1
1.2735059361590673E-1 2.4135527180028268E-1
1.4709509611081564E-1 2.2182645975349508E-1
1.643567796563793E-1 2.0095216890354964E-1
1.790777971042016E-1 1.7901393231113447E-1
1.9122940379189662E-1 1.5629060463399716E-1
2.008108392824946E-1 1.3305560411115852E-1
2.078479734860221E-1 1.0957434582073121E-1
2.1239174338502365E-1 8.610187989907102E-2
2.1451640546143586E-1 6.28807558831108E-2
2.143176322602925E-1 4.013911727878587E-2
2.1191047959547796E-1 1.808903931316504E-2
2.0742725234123377E-1 -3.074887634853571E-3
2.0101529479756872E-1 -2.3176719362444125E-2
1.9283473390578798E-1 -4.206007774751514E-2
1.8305619952361205E-1 -5.958881634093888E-2
1.7185854718557828E-1 -7.564744700880292E-2
1.5942660678680787E-1 -9.014133095126882E-2
1.4594897907988572E-1 -1.0299664497916146E-1
1.3161590038043264E-1 -1.1416013320892411E-1
1.166171958437678E-1 -1.2359865760426314E-1
1.0114033503869427E-1 -1.312985628219371E-1
8.536860783913602E-2 -1.3726486947299438E-1
6.947943287295652E-2 -1.4152031290639702E-1
5.3642807821961326E-2 -1.4410424616828818E-1
3.8019915203811816E-2 -1.450714232219093E-1
2.2761884375920523E-2 -1.444906827458047E-1
8.008720111746455E-3 -1.4244354983681795E-1
-6.111601887844809E-3 -1.390227743379009E-1
-2.520348058285018E-1 -5.514416201994814E-1
-1.9483870631560284E-2 -1.3433082478757394E-1
-2.520141895225588E-1 -5.514912351213037E-1
-2.9823503329398304E-1 -5.107039343946368E-1
-3.391272076120621E-1 -4.6662100233620946E-1
-3.745266585336908E-1 -4.198579800974221E-1
-4.043340879325934E-1 -3.7102829822064093E-1
-4.2851284129871825E-1 -3.2073703070280185E-1
-4.4708624998716734E-1 -2.695750381933657E-1
-4.601344815611078E-1 -2.1811354237346248E-1
-4.677909548884713E-1 -1.6689916522316114E-1
-4.702383779977825E-1 -1.1644946594416745E-1
-4.6770446808673805E-1 -6.724899208953847E-2
-4.604574116778913E-1 -1.9745865109687608E-2
-4.4880112846603837E-1 2.5651091784485186E-2
-4.330703927797769E-1 6.85746790610008E-2
-4.136258728692135E-1 1.087011038235929E-1
-3.908491427764357E-1 1.457512264153157E-1
-3.651377190563887E-1 1.7949128426100977E-1
-3.369001735494191E-1 2.0973311073394832E-1
-3.0655136852426623E-1 2.3633387128766747E-1
-2.745078578974365E-1 2.591953430857552E-1
-2.411834940198021E-1 2.782627669351583E-1
-2.0698527526611754E-1 2.9352330569313273E-1
-1.7230946663376184E-1 3.0500414235038936E-1
-1.3753801956247835E-1 3.127702563088643E-1
-1.0303531370713764E-1 3.169219158601421E-1
-6.914523893223336E-2 3.1759192678304526E-1
-3.618863136410754E-2 3.1494267718063707E-1
-4.4610725665899156E-3 3.091630198574361E-1
2.5768942630942343E-2 3.0046503120891965E-1
5.426146880684139E-2 2.8908068701692613E-1
8.080620591786465E-2 2.752584936583955E-1
1.0522323480722018E-1 2.5926011154117895E-1
1.2736340225520468E-1 2.4135700603553692E-1
1.4710836870713526E-1 2.2182715944821033E-1
1.6437033457578412E-1 2.0095187585830018E-1
1.7909146341579255E-1 1.7901270572832942E-1
1.9124302287509942E-1 1.5628851824449572E-1
2.008242659432471E-1 1.3305274353280727E-1
2.0786107685447178E-1 1.0957080435276495E-1
2.1240440702958965E-1 8.609775714727722E-2
2.1452852754917612E-1 6.28761541415162E-2
2.143291252029974E-1 4.013413897700735E-2
2.119212694861646E-1 1.808378392629118E-2
2.0743727803126713E-1 -3.0803233167153846E-3
2.0102450704504787E-1 -2.3182246308917184E-2
1.9284309417255113E-1 -4.206561445948749E-2
1.8306367874696824E-1 -5.9594290593254426E-2
1.7186512452342262E-1 -7.565279689527156E-2
1.5943226830392535E-1 -9.014650574226217E-2
1.459537161649372E-1 -1.0300160546687266E-1
1.3161970930259437E-1 -1.1416485166572804E-1
1.1662007617842277E-1 -1.2360311796737555E-1
1.0114228862204583E-1 -1.313027601504528E-1
8.536963818633751E-2 -1.372688091806683E-1
6.947954322054221E-2 -1.415240100776445E-1
5.364200257058666E-2 -1.4410772433728022E-1
3.801819772243776E-2 -1.450747132604775E-1
2.2759257351843358E-2 -1.4449382159618918E-1
8.005185279835904E-3 -1.4244657892427415E-1
-6.11604400874573E-3 -1.3902573849091002E-1
-2.006950018172266E-1 -5.883718395718553E-1
-1.948922053995423E-2 -1.3433377087926843E-1
-2.0066893837964814E-1 -5.884203088869934E-1
-2.519961677298291E-1 -5.515388639240454E-1
-2.9822430692044144E-1 -5.107499238884692E-1
-3.3912299756158554E-1 -4.666646785407871E-1
-3.745281677648521E-1 -4.1989879181768824E-1
-4.043405149658735E-1 -3.710658129466572E-1
-4.285233924646775E-1 -3.207709289039808E-1
-4.471001504472329E-1 -2.6960510666156384E-1
-4.601509850638721E-1 -2.181396654044619E-1
-4.6780935256290457E-1 -1.6692131693554235E-1
-4.7025800551792885E-1 -1.1646770013616949E-1
-4.6772471115809355E-1 -6.726343278292958E-2
-4.6047771159303424E-1 -1.975669666036677E-2
-4.4882098501540757E-1 2.564363427911552E-2
-4.330893666958786E-1 6.857031989132163E-2
-4.1364358705417253E-1 1.086995361233514E-1
-3.908652821066937E-1 1.4575212123000064E-1
-3.6515202952771114E-1 1.794942991145559E-1
-3.369124603839301E-1 2.0973789764395948E-1
-3.0656149349260414E-1 2.3634008411500504E-1
-2.745157361518256E-1 2.592026437390353E-1
-2.411890898460594E-1 2.7827083166564537E-1
-2.0698859795809715E-1 2.935318296168541E-1
-1.7231056578560047E-1 3.050128436731064E-1
-1.375369800839259E-1 3.1277887954489875E-1
-1.0303225076942382E-1 3.169302343374454E-1
-6.91402928984433E-2 3.1759974402616326E-1
-3.618196282286402E-2 3.1494982820767536E-1
-4.452857491017556E-3 3.0916937116632087E-1
2.577851745050682E-2 3.004704804098737E-1
5.427221015144184E-2 2.890851617540175E-1
8.081791819284871E-2 2.752619500962895E-1
1.0523572343584972E-1 2.592625328113216E-1
1.2737647687855744E-1 2.4135839933175254E-1
1.4712184596996955E-1 2.2182755402424062E-1
1.6438404039791596E-1 2.0095131989567408E-1
1.791052348057961E-1 1.7901126359881123E-1
1.9125670930667804E-1 1.5628626761751935E-1
2.0083773034445568E-1 1.330497718833376E-1
2.0787419614362926E-1 1.0956720658638801E-1
2.1241707232085702E-1 8.609363261009408E-2
2.145406439958443E-1 6.287160362702858E-2
2.1434061155252254E-1 4.012926246594563E-2
2.119320575946034E-1 1.8078678055396175E-2
2.074473115979891E-1 -3.0855667124346873E-3
2.0103374085573245E-1 -2.3187542871918314E-2
1.9285149286310113E-1 -4.207088816189319E-2
1.8307121551929764E-1 -5.959947523936515E-2
1.71871779987731E-1 -7.565783683557838E-2
1.5943802878169958E-1 -9.015135653972954E-2
1.4595857317142694E-1 -1.0300623420626903E-1
1.316236581321576E-1 -1.141692368321359E-1
1.1662311458494407E-1 -1.2360724927558406E-1
1.0114441617716463E-1 -1.3130663781519197E-1
8.537085484222989E-2 -1.3727244336543087E-1
6.947984994135821E-2 -1.4152741961460918E-1
5.364139913080434E-2 -1.4411093561995053E-1
3.801668329292356E-2 -1.4507775882833543E-1
2.2756830105779433E-2 -1.444967387601643E-1
8.001841765449576E-3 -1.4244940830715133E-1
-6.120308610929303E-3 -1.3902852253354994E-1
-1.4454013772943217E-1 -6.20794419127E-1
-1.949441247970316E-2 -1.3433655258134922E-1
-1.4450864246801176E-1 -6.208411619698112E-1
-2.0064581480227023E-1 -5.884669422953035E-1
-2.519807067306014E-1 -5.515845010423521E-1
-2.98215758880243E-1 -5.107938043895297E-1
-3.3912058729989275E-1 -4.667061674017061E-1
-3.7453110818097746E-1 -4.1993737591462865E-1
-4.0434801943088344E-1 -3.711010959057526E-1
-4.285346861928802E-1 -3.2080262496410944E-1
-4.471144807120122E-1 -2.696330325710909E-1
-4.601676306165837E-1 -2.181637326688551E-1
-4.678276312174649E-1 -1.66941522638422E-1
-4.702772807980102E-1 -1.1648411743277931E-1
-4.6774439789777317E-1 -6.727620117710945E-2
-4.604972801889424E-1 -1.976601232228366E-2
-4.4883996436701534E-1 2.5637528326354516E-2
-4.331073460966579E-1 6.8567143459725E-2
-4.1366021687092164E-1 1.0869898112844632E-1
-3.9088027344331505E-1 1.4575386051019176E-1
-3.6516515299749225E-1 1.7949799476374215E-1
-3.3692354387234347E-1 2.097432087043598E-1
-3.0657041966457377E-1 2.3634667338663115E-1
-2.74522438436854E-1 2.5921018426668685E-1
-2.411935486881512E-1 2.782790119345106E-1
-2.0699083643514182E-1 2.935403582242696E-1
-1.7231064481522998E-1 3.050214530568732E-1
-1.3753499349650486E-1 3.12787329014739E-1
-1.0302832027354193E-1 3.169383119889191E-1
-6.913456324818514E-2 3.176072683558505E-1
-3.61745968286545E-2 3.149566486918079E-1
-4.444031450276892E-3 3.0917536827209574E-1
2.5788618231261096E-2 3.00475564963828E-1
5.428339568735185E-2 2.8908927351435365E-1
8.082999721530659E-2 2.752650565289868E-1
1.0524850702056504E-1 2.5926462670568434E-1
1.2738978122235345E-1 2.413594968406618E-1
1.471354950183663E-1 2.21827691579626E-1
1.6439786786415764E-1 2.0095055163876857E-1
1.7911908573920002E-1 1.7900965860787205E-1
1.912704413911826E-1 1.5628390631420058E-1
2.0085121454644025E-1 1.330467437331346E-1
2.078873171743848E-1 1.0956360705117071E-1
2.1242972865794343E-1 8.60895601449403E-2
2.1455274762529808E-1 6.286715709472819E-2
2.1435208751376217E-1 4.0124538778248495E-2
2.1194284294033838E-1 1.8073770734877776E-2
2.0745735474550797E-1 -3.0905712094367664E-3
2.0104300035733866E-1 -2.319256528792347E-2
1.9285993624869058E-1 -4.2075858421943405E-2
1.830788179218704E-1 -5.960433328846631E-2
1.7187852305658763E-1 -7.566253337838134E-2
1.5944389943490855E-1 -9.015585373558319E-2
1.4596356238541205E-1 -1.03010505418759E-1
1.316277598564932E-1 -1.1417326667186102E-1
1.1662632473934258E-1 -1.2361103309642449E-1
1.0114673168979148E-1 -1.3131018110030102E-1
8.537227284931498E-2 -1.3727576015872686E-1
6.948036748642208E-2 -1.415305322875617E-1
5.364101209983303E-2 -1.4411387269068757E-1
3.801538666936484E-2 -1.450805540338209E-1
2.27546168833866E-2 -1.444994290568457E-1
7.998703354820625E-3 -1.4245203245495208E-1
-6.12438270573603E-3 -1.390311194926268E-1
-8.393411457482976E-2 -6.481256482398241E-1
-1.9499434627223717E-2 -1.3433916017715852E-1
-8.389726399415036E-2 -6.481700741412699E-1
-1.4448044000672655E-1 -6.208862566189138E-1
-2.0062559296867952E-1 -5.885117311875867E-1
-2.5196775067197913E-1 -5.516281378175247E-1
-2.9820932110354625E-1 -5.108355702693097E-1
-3.3911990114306756E-1 -4.667454683411813E-1
-3.745354003480782E-1 -4.1997373805136684E-1
-4.043565211301586E-1 -3.7113415961157814E-1
-4.2854664421082644E-1 -3.208321378132543E-1
-4.4712916683915266E-1 -2.6965884148038344E-1
-4.601843499800145E-1 -2.1818577536605818E-1
-4.678457295739507E-1 -1.6695981849491454E-1
-4.7029615080772713E-1 -1.1649875792391486E-1
-4.6776348402350093E-1 -6.728734027818148E-2
-4.6051608247622494E-1 -1.977385680891755E-2
-4.488580409739368E-1 2.563272854772045E-2
-4.331243148170052E-1 6.856510477734101E-2
-4.1367575538446655E-1 1.0869939524765632E-1
-3.908941187249475E-1 1.4575640306254153E-1
-3.651770996825537E-1 1.7950233330664386E-1
-3.3693344218940197E-1 2.0974900990111253E-1
-3.0657817198627396E-1 2.363536098968872E-1
-2.7452799588056015E-1 2.5921794060274894E-1
-2.411969070517642E-1 2.782872893536522E-1
-2.0699203160972363E-1 2.9354887909100946E-1
-1.723097481992613E-1 3.050299643536996E-1
-1.3753210678516575E-1 3.127956047245709E-1
-1.0302357097000882E-1 3.169461552244243E-1
-6.912809956164566E-2 3.1761451231793636E-1
-3.616658307672062E-2 3.149631572134505E-1
-4.434643400012042E-3 3.091810355289014E-1
2.5799197589464258E-2 3.004803142514151E-1
5.429497985158348E-2 2.8909305676007907E-1
8.084239988898884E-2 2.7526785186321195E-1
1.0526154533796842E-1 2.5926643652459863E-1
1.2740327837638712E-1 2.4136034517786834E-1
1.4714928250458698E-1 2.218276216053879E-1
1.6441178735918868E-1 2.0094962290220825E-1
1.7913299052781909E-1 1.7900794381728352E-1
1.9128419730455418E-1 1.5628148864004535E-1
2.0086470057902225E-1 1.3304371386916264E-1
2.0790042574720574E-1 1.095600602126041E-1
2.12442365473841E-1 8.608559343715343E-2
2.1456483134307297E-1 6.286286711570994E-2
2.1436354902671922E-1 4.012001911013772E-2
2.1195362457004022E-1 1.8069109893237734E-2
2.0746740921197035E-1 -3.095291341480846E-3
2.0105228970702912E-1 -2.3197271328484533E-2
1.9286843067537005E-1 -4.208048638863761E-2
1.8308649415924452E-1 -5.9608829383128836E-2
1.7188536376616786E-1 -7.56668551232142E-2
1.5944989142320332E-1 -9.015996973335168E-2
1.4596869598878545E-1 -1.0301439542782077E-1
1.316320276184362E-1 -1.1417692133553164E-1
1.1662972044616196E-1 -1.2361445326104724E-1
1.011492494493204E-1 -1.3131337673714474E-1
8.537390702587207E-2 -1.372787496840622E-1
6.948111098913959E-2 -1.4153334063072331E-1
5.364085702780275E-2 -1.4411653029615734E-1
3.801432293749979E-2 -1.4508309478737605E-1
2.2752632674151303E-2 -1.4450188876439607E-1
7.995784565083952E-3 -1.4245444697959858E-1
-6.12825258451417E-3 -1.3903352303286878E-1
-1.9307886734838596E-2 -6.698072675007801E-1
-1.9504274544138927E-2 -1.343415839705873E-1
-1.926582106769566E-2 -6.698487826197179E-1
-8.386406591298559E-2 -6.482130796204734E-1
-1.4445548713604295E-1 -6.209296906596189E-1
-2.0060820987342123E-1 -5.885546619431052E-1
-2.5195722300737095E-1 -5.516697632491377E-1
-2.982049086247964E-1 -5.108752156636641E-1
-3.39120849923106E-1 -4.667825821345373E-1
-3.745409540508767E-1 -4.200078863336464E-1
-4.0436593203016363E-1 -3.711650195466696E-1
-4.285591828255919E-1 -3.2085949025392513E-1
-4.471441310736105E-1 -2.6968256274592395E-1
-4.602010727648773E-1 -2.18205828574421E-1
-4.678635858076441E-1 -1.6697624430171612E-1
-4.703145629989983E-1 -1.1651166507769573E-1
-4.677819268294821E-1 -6.729689602455463E-2
-4.605340857233115E-1 -1.978027738453082E-2
-4.4887519225248884E-1 2.5629187509539988E-2
-4.3314026016221546E-1 6.856415728125054E-2
-4.13690199506519E-1 1.0870073386645906E-1
-3.9090682387707426E-1 1.4575970719015077E-1
-3.651878841274652E-1 1.795072765939951E-1
-3.369421773839294E-1 2.0975526761599605E-1
-3.0658477944153495E-1 2.3636086519648974E-1
-2.745324436275198E-1 2.592258898101121E-1
-2.4119920516660356E-1 2.7829564691293035E-1
-2.0699222790345662E-1 2.935573814586236E-1
-1.723079233997046E-1 3.0503837302084214E-1
-1.3752836984347475E-1 3.1280370872397323E-1
-1.0301805412484558E-1 3.1695377242864126E-1
-6.912095377558025E-2 3.176214905187406E-1
-3.615797310919474E-2 3.149693745493136E-1
-4.424743952797955E-3 3.091863992200484E-1
2.581020624623036E-2 3.004847603867605E-1
5.430691570609261E-2 2.890965484932383E-1
8.085508221728811E-2 2.7527037744209487E-1
1.0527479763388656E-1 2.5926800702905384E-1
1.274169310464402E-1 2.4136099224552712E-1
1.4716317485776445E-1 2.2182739463942427E-1
1.6442576916278254E-1 2.009485860625107E-1
1.7914692332531656E-1 1.790061732134486E-1
1.912979551111207E-1 1.5627906927822496E-1
2.0087817047264764E-1 1.3304073694148158E-1
2.0791350768643935E-1 1.0955662024359777E-1
2.1245497234204339E-1 8.608178563945548E-2
2.1457688816967282E-1 6.28587850575467E-2
2.1437499231970597E-1 4.0115752481351644E-2
2.1196440154554483E-1 1.8064742466069574E-2
2.0747747680461917E-1 -3.0996833286349368E-3
2.010616130771393E-1 -2.3201620452426183E-2
1.9287698226368571E-1 -4.208473485877562E-2
1.8309425240567984E-1 -5.96129304331695E-2
1.7189231178389983E-1 -7.56707727455186E-2
1.5945601589262726E-1 -9.016367920437729E-2
1.4597398631474146E-1 -1.0301788289501539E-1
1.3163647471069764E-1 -1.141801833272744E-1
1.1663331578082954E-1 -1.2361749581657813E-1
1.0115198460954912E-1 -1.3131621446564007E-1
8.537577258414605E-2 -1.3728140435443792E-1
6.948209637886385E-2 -1.4153583971601405E-1
5.364094952671371E-2 -1.4411890515110998E-1
3.8013508029568883E-2 -1.4508537893471088E-1
2.2750893271666395E-2 -1.445041158581251E-1
7.9931007503048E-3 -1.4245664878684802E-1
-6.13190373603623E-3 -1.3903572769037145E-1
4.884179062326705E-2 -6.853138416757953E-1
-1.950891914202392E-2 -1.3434381435836826E-1
4.88888653930645E-2 -6.853518554676127E-1
-1.922777383756314E-2 -6.698891479888673E-1
-8.383447113606378E-2 -6.48254647489148E-1
-1.4443371261039428E-1 -6.209714443198147E-1
-2.0059357936168049E-1 -5.885957169389565E-1
-2.519490283949432E-1 -5.517093649680322E-1
-2.982024215020603E-1 -5.109127353220266E-1
-3.391233326827388E-1 -4.6681751157689017E-1
-3.7454767056151356E-1 -4.2003983188831406E-1
-4.043761577603995E-1 -3.711936949487294E-1
-4.285722140142762E-1 -3.20884708965891E-1
-4.4715929319675757E-1 -2.6970422969590735E-1
-4.6021772773063974E-1 -2.18223931213839E-1
-4.6788113850535573E-1 -1.669908434565539E-1
-4.703324663939598E-1 -1.1652288555098791E-1
-4.677996858706646E-1 -6.730491715795502E-2
-4.605512603714203E-1 -1.9785323582033342E-2
-4.48891399193657E-1 2.5626855941440107E-2
-4.331551734853764E-1 6.856425315304271E-2
-4.137035503058743E-1 1.0870295164747358E-1
-3.9091839929139727E-1 1.4576373067798729E-1
-3.651975250535824E-1 1.7951278667763568E-1
-3.369497758646534E-1 2.0976194880204208E-1
-3.0659027537954625E-1 2.3636841150479113E-1
-2.7453582076208005E-1 2.592340100153566E-1
-2.4120048703725852E-1 2.783040689791906E-1
-2.0699147323304146E-1 2.935658561072892E-1
-1.7230522137739854E-1 3.050466765357073E-1
-1.3752383556571132E-1 3.128116449216465E-1
-1.0301182376588484E-1 3.169611741262165E-1
-6.911317992221239E-2 3.176282201833065E-1
-3.6148820735856554E-2 3.1497532344430174E-1
-4.414385631421254E-3 3.0919148784447775E-1
2.5821593885224224E-2 3.0048893679389066E-1
5.4319155273716634E-2 2.8909978659608754E-1
8.086799896287242E-2 2.752726752758281E-1
1.0528822195408159E-1 2.59269384022143E-1
1.274307009951979E-1 2.4136148699693255E-1
1.4717713771767338E-1 2.218270620062551E-1
1.6443978304305046E-1 2.0094749429001754E-1
1.7916085801502882E-1 1.790044008430825E-1
1.9131169292373637E-1 1.5627670280490397E-1
2.0089160622318392E-1 1.330378674773863E-1
2.0792654885562684E-1 1.0955334089318922E-1
2.124675386392758E-1 8.607818911892942E-2
2.145889108612658E-1 6.285496159563159E-2
2.1438641350747373E-1 4.011178701046968E-2
2.1197517320732076E-1 1.8060713689143E-2
2.074875594311979E-1 -3.1037049738929148E-3
2.0107097486113856E-1 -2.3205573749562856E-2
1.9288559749821016E-1 -4.208856898335615E-2
1.831021009111519E-1 -5.961660532286055E-2
1.7189937698325522E-1 -7.567425927048213E-2
1.5946228411770047E-1 -9.016695927023197E-2
1.4597944587558506E-1 -1.0302094895137985E-1
1.3164111467803377E-1 -1.1418303762374858E-1
1.1663712532470122E-1 -1.23620149471438E-1
1.0115495213676291E-1 -1.3131868624192483E-1
8.53778853373525E-2 -1.3728371914868623E-1
6.948333953810776E-2 -1.415380268340588E-1
5.364130617933026E-2 -1.441209963730117E-1
3.8012958749841154E-2 -1.4508740651615268E-1
2.2749415391297195E-2 -1.4450611019100792E-1
7.990668210828627E-3 -1.424586363506291E-1
-6.135320774766954E-3 -1.390377289254615E-1
1.1995439470409378E-1 -6.941601526933346E-1
-1.9513354644677978E-2 -1.3434584191220209E-1
1.2000620524351567E-1 -6.941940850732083E-1
4.893154959985786E-2 -6.853890364078423E-1
-1.919368872355431E-2 -6.699283404190707E-1
-8.380839880951213E-2 -6.482947503264481E-1
-1.4441501927475575E-1 -6.210114918107662E-1
-2.0058159441033316E-1 -5.886348758284905E-1
-2.519430549533318E-1 -5.517469303493433E-1
-2.982017469391841E-1 -5.109481255089625E-1
-3.39127238907425E-1 -4.6685026221425474E-1
-3.745554441251251E-1 -4.200695893100303E-1
-4.0438709929682304E-1 -3.7122020900548924E-1
-4.285856470608052E-1 -3.209078248079278E-1
-4.471745718455834E-1 -2.697238796591922E-1
-4.6023424389787676E-1 -2.182401260120635E-1
-4.678983277337726E-1 -1.6700366282652518E-1
-4.7034981228836237E-1 -1.1653246908333957E-1
-4.6781672391141293E-1 -6.73114549897392E-2
-4.605675804821706E-1 -1.9789047123186493E-2
-4.4890664687962084E-1 2.5625682981482573E-2
-4.331690503266897E-1 6.856534350466316E-2
-4.137158134324035E-1 1.0870600241253177E-1
-3.909288597685807E-1 1.4576843131259873E-1
-3.6520604574365684E-1 1.7951882588922558E-1
-3.3695626855352145E-1 2.097690209432676E-1
-3.0659469723601157E-1 2.3637622209451603E-1
-2.74538170380067E-1 2.592422806850228E-1
-2.4120080031581453E-1 2.7831254150156054E-1
-2.069898188165425E-1 2.9357429565442894E-1
-1.7230169600746686E-1 3.0505487416330535E-1
-1.3751855952518824E-1 3.128194193527538E-1
-1.0300493622143803E-1 3.169683727745425E-1
-6.910483448808427E-2 3.176347194547173E-1
-3.613918124244205E-2 3.149810283962564E-1
-4.403622037971468E-3 3.091963314641828E-1
2.583330895785369E-2 3.0049287862160734E-1
5.433164984727466E-2 2.8910281096962637E-1
8.088110464764067E-2 2.7527478915590636E-1
1.053017765326428E-1 2.592706147597297E-1
1.2744455019153172E-1 2.4136187937693943E-1
1.4719113706296913E-1 2.2182667571682413E-1
1.6445379895551093E-1 2.0094640083742807E-1
1.7917476872139457E-1 1.7900268098715336E-1
1.9132538884136407E-1 1.56274443511813E-1
2.009049900341143E-1 1.3303515917441788E-1
2.079395353578322E-1 1.095502748779001E-1
2.1248005414447588E-1 8.607485517494297E-2
2.146008926812486E-1 6.285144550747997E-2
2.1439780898936558E-1 4.0108169232299345E-2
2.1198593860437012E-1 1.8057067014978563E-2
2.0749765890190722E-1 -3.1073160900747764E-3
2.0108037917812147E-1 -2.3209094836829796E-2
1.9289428292197627E-1 -4.2091956164065004E-2
1.8311004801172848E-1 -5.961982542464894E-2
1.719065692856298E-1 -7.56772902062759E-2
1.594687075699851E-1 -9.016978963807792E-2
1.4598508740988822E-1 -1.0302357736344148E-1
1.3164596138161808E-1 -1.1418547192346809E-1
1.1664116375251522E-1 -1.2362240561339304E-1
1.0115816761219781E-1 -1.313207868384553E-1
8.538026148019366E-2 -1.3728569176054894E-1
6.94848573125755E-2 -1.4153990203683786E-1
5.364194455094658E-2 -1.4412280570720412E-1
3.8012692873545445E-2 -1.4508917995511098E-1
2.2748216793240832E-2 -1.4450787386396086E-1
7.988504365567084E-3 -1.424604100001658E-1
-6.138487301367698E-3 -1.3903952346652507E-1
1.9340846624158708E-1 -6.959085332368966E-1
-1.951756654548278E-2 -1.3434765747711486E-1
1.9346467085924765E-1 -6.959378221326558E-1
1.2005324623272212E-1 -6.942275517009425E-1
4.896990818301087E-2 -6.854253536623195E-1
-1.9163473479996914E-2 -6.699663229023212E-1
-8.378573903801904E-2 -6.4833335224315E-1
-1.4439928682888847E-1 -6.210498030111528E-1
-2.0057212980767006E-1 -5.886721170000241E-1
-2.519391767849026E-1 -5.517824476843116E-1
-2.982027616302228E-1 -5.109813849206523E-1
-3.391324504694649E-1 -4.6688084297567545E-1
-3.7456416372987605E-1 -4.200971771994676E-1
-4.043986544320789E-1 -3.712445888932951E-1
-4.285993896381479E-1 -3.2092887261330616E-1
-4.471898858780944E-1 -2.697415540802047E-1
-4.6025055185507474E-1 -2.1825445945109614E-1
-4.679150958863531E-1 -1.6701475261351406E-1
-4.703665552050735E-1 -1.1654046827360175E-1
-4.678330075413802E-1 -6.731656319336157E-2
-4.605830243080091E-1 -1.979150148955746E-2
-4.4892092484167984E-1 2.5625616492445918E-2
-4.331818910911392E-1 6.856737845149107E-2
-4.137269992430342E-1 1.0870983979120023E-1
-3.909382249354144E-1 1.4577376691668859E-1
-3.6521347421413103E-1 1.795253570378801E-1
-3.3696169080020316E-1 2.0977645243477144E-1
-3.065980866758587E-1 2.3638427143501659E-1
-2.745395394655089E-1 2.592506827170216E-1
-2.412001963469404E-1 2.7832105204804997E-1
-2.0698731929044967E-1 2.9358269444062385E-1
-1.7229740418754005E-1 3.050629670693981E-1
-1.3751259989431427E-1 3.128270398318565E-1
-1.0299745007467824E-1 3.16975382742716E-1
-6.909597556862111E-2 3.176410090040325E-1
-3.612911151707286E-2 3.1498651579169246E-1
-4.392508235064674E-3 3.0920096182150775E-1
2.5845298907352484E-2 3.0049662252610876E-1
5.434434983764348E-2 2.891056625846883E-1
8.089435319309558E-2 2.752767639992324E-1
1.0531541890178724E-1 2.592717471715469E-1
1.2745844018496902E-1 2.4136221979055716E-1
1.472051385429754E-1 2.2182628794660628E-1
1.6446778682245722E-1 2.0094535924979443E-1
1.7918862958911433E-1 1.7900106762551282E-1
1.913390211890337E-1 1.562723454125308E-1
2.0091830416373102E-1 1.3303266542322084E-1
2.079524532524299E-1 1.0954747421690399E-1
2.124925086745702E-1 8.607183375314026E-2
2.1461282691651834E-1 6.284828469381155E-2
2.1440917521956754E-1 4.0104943933917246E-2
2.1199669722529116E-1 1.80538443968293E-2
2.0750777729364572E-1 -3.110478487589373E-3
2.0108983054104815E-1 -2.321214946090417E-2
1.929030450440778E-1 -4.209486612718579E-2
1.831181021151843E-1 -5.962256478635703E-2
1.719138989205145E-1 -7.567984385114662E-2
1.594752979198121E-1 -9.01721527709152E-2
1.459909238943445E-1 -1.0302575472019006E-1
1.316510289565035E-1 -1.1418747680581218E-1
1.1664544628421102E-1 -1.2362425855403522E-1
1.0116164724473786E-1 -1.3132251395187863E-1
8.538291792488875E-2 -1.3728732285420275E-1
6.948666794249293E-2 -1.4154146836855894E-1
5.3642883119280435E-2 -1.441243376927231E-1
3.801272919969554E-2 -1.4509070449160877E-1
2.274731660986656E-2 -1.445094115960516E-1
7.986627903168035E-3 -1.4246197226895982E-1
-6.1413857425041294E-3 -1.3904110958444882E-1
2.685252497354904E-1 -6.901760575559199E-1
-1.9521539561973722E-2 -1.3434925228622208E-1
2.68585437768937E-1 -6.902001669746524E-1
1.9351571838525272E-1 -6.95967067588596E-1
1.2009559330259849E-1 -6.942605118598497E-1
4.900404710345467E-2 -6.854607580752103E-1
-1.9137003273880796E-2 -6.700030469918681E-1
-8.376635630197249E-2 -6.483704111337387E-1
-1.443863750698982E-1 -6.210863453746102E-1
-2.0056504510710293E-1 -5.887074190873837E-1
-2.519372566071305E-1 -5.518159073501644E-1
-2.9820533404813393E-1 -5.110125155136419E-1
-3.391388436844355E-1 -4.669092667972955E-1
-3.745737152427099E-1 -4.2012261852003663E-1
-4.0441071973221E-1 -3.712668665077714E-1
-4.28613350019594E-1 -3.209478917896117E-1
-4.4720515563742247E-1 -2.6975729829658E-1
-4.602665844132849E-1 -2.1826698159971636E-1
-4.6793138867330436E-1 -1.6702416619082636E-1
-4.7038265357868714E-1 -1.165469383933108E-1
-4.678485076605021E-1 -6.732029760016046E-2
-4.605975748571004E-1 -1.979274177067385E-2
-4.489342277383194E-1 2.562660316581791E-2
-4.331937011481593E-1 6.857030762940564E-2
-4.137371231541083E-1 1.0871441721661937E-1
-3.909465193639315E-1 1.4577969559719617E-1
-3.6521984320993384E-1 1.7953234357140002E-1
-3.3696608234366116E-1 2.0978421260932223E-1
-3.066004895771267E-1 2.3639253523497072E-1
-2.7453997901646954E-1 2.592591984788268E-1
-2.4119873000723271E-1 2.783295897955924E-1
-2.069840324323849E-1 2.9359104855806617E-1
-1.7229240560641743E-1 3.0507095819222635E-1
-1.3750601734179171E-1 3.1283451605880186E-1
-1.0298942603034522E-1 3.169822200183123E-1
-6.908666293094945E-2 3.176471110771537E-1
-3.6118669891997586E-2 3.149918135841926E-1
-4.381100385085374E-3 3.092054121367072E-1
2.585751031749245E-2 3.005002063593419E-1
5.435720509694988E-2 2.8910838364058333E-1
8.09076980477997E-2 2.7527864542673003E-1
1.0532910635392971E-1 2.592728296458469E-1
1.2747233237895653E-1 2.4136255885670482E-1
1.472191078233168E-1 2.2182595096294133E-1
1.644817165828857E-1 2.0094442266966392E-1
1.792024148051973E-1 1.7899961430169112E-1
1.9135256822374314E-1 1.5627046167022224E-1
2.0093153105826567E-1 1.33030438223552E-1
2.0796528888872093E-1 1.0954498934971031E-1
2.125048922277727E-1 8.60691732549409E-2
2.1462470696714442E-1 6.284552491830082E-2
2.144205087713458E-1 4.010215415457658E-2
2.1200744852610964E-1 1.8051085151079314E-2
2.0751791675480888E-1 -3.113156529417884E-3
2.0109933347060666E-1 -2.3214705876796006E-2
1.9291189051308397E-1 -4.20972713782318E-2
1.8312627180882E-1 -5.962480019331942E-2
1.719213761623882E-1 -7.568190125249945E-2
1.5948206714665664E-1 -9.017403407675484E-2
1.4599696861494657E-1 -1.0302747061195411E-1
1.316563319275533E-1 -1.1418904592083752E-1
1.166499886486747E-1 -1.2362570573130702E-1
1.0116540786131029E-1 -1.3132386844421487E-1
8.538587284161724E-2 -1.3728861619761965E-1
6.948879018787445E-2 -1.4154273201417383E-1
5.364414140523322E-2 -1.441256001604032E-1
3.801308825576356E-2 -1.4509198865147502E-1
2.2746735367758585E-2 -1.4451073112281845E-1
7.985059082634747E-3 -1.4246332837817838E-1
-6.143997151317579E-3 -1.3904248748597145E-1
3.445731446096336E-1 -6.76641503557409E-1
-1.952525758198496E-2 -1.3435061809556795E-1
3.446368360967786E-1 -6.766599322227136E-1
2.6864006938964446E-1 -6.902247170263095E-1
1.9356169800589E-1 -6.959962158974812E-1
1.2013336923626408E-1 -6.942929008573646E-1
4.9034109012680564E-2 -6.854951854863701E-1
-1.911412491543324E-2 -6.700384558233778E-1
-8.375009341259917E-2 -6.484058811590959E-1
-1.4437612737079725E-1 -6.21121085882226E-1
-2.005601877129733E-1 -5.887407624489087E-1
-2.5193714841179643E-1 -5.518473029263616E-1
-2.9820932685423807E-1 -5.110415233419878E-1
-3.3914629142220837E-1 -4.669355511365593E-1
-3.745839828955048E-1 -4.201459408633809E-1
-4.044231916375954E-1 -3.712870781308752E-1
-4.28627437586962E-1 -3.2096492587284775E-1
-4.4722030390251677E-1 -2.6977116164201637E-1
-4.6028227790680876E-1 -2.1827774603379918E-1
-4.679471558579857E-1 -1.6703195991829195E-1
-4.7039807043139503E-1 -1.1655193716579774E-1
-4.6786320018194677E-1 -6.732271586982223E-2
-4.606112203599E-1 -1.979282458637186E-2
-4.4894655534659683E-1 2.56285888214143E-2
-4.332044911688136E-1 6.857408024717361E-2
-4.137462058150017E-1 1.0871968820777594E-1
-3.9095377264766584E-1 1.4578617590918722E-1
-3.6522519000117104E-1 1.7953974974006526E-1
-3.3696948766967816E-1 2.0979227192804126E-1
-3.06601956165786E-1 2.364009905346497E-1
-2.745395437992392E-1 2.5926781183795583E-1
-2.411964596437254E-1 2.7833814556612707E-1
-2.0698001911406774E-1 2.935993557903601E-1
-1.7228676256061592E-1 3.050788521927818E-1
-1.3749887480585388E-1 3.128418593461534E-1
-1.0298092659962675E-1 3.169889023368734E-1
-6.907695805516045E-2 3.1765304939293687E-1
-3.610791599321147E-2 3.1499695108183556E-1
-4.3694556395088265E-3 3.09209716766744E-1
2.5869888994668425E-2 3.005036694143343E-1
5.4370164950644576E-2 2.891110167574609E-1
8.092109223068107E-2 2.752804793567048E-1
1.0534279607794443E-1 2.592739109607734E-1
1.274861881930648E-1 2.413629473398908E-1
1.4723301063814806E-1 2.2182571670934356E-1
1.6449555837688792E-1 2.0094364400859163E-1
1.7921609866963167E-1 1.789983737833096E-1
1.913660086530846E-1 1.562688440783324E-1
2.0094465340057363E-1 1.3302852832956355E-1
2.0797802881417427E-1 1.0954286924124201E-1
2.125171950072758E-1 8.606692031156779E-2
2.146365263957932E-1 6.284321016682742E-2
2.1443180636479378E-1 4.009984053017099E-2
2.120181921691276E-1 1.8048826241435226E-2
2.075280795634863E-1 -3.1153170337836224E-3
2.0110889261431317E-1 -2.321673506913555E-2
1.929208261549346E-1 -4.20991471778575E-2
1.8313456580550433E-1 -5.962651113842375E-2
1.7192901200945085E-1 -7.5683446674525E-2
1.5948902735259446E-1 -9.017542196293245E-2
1.460032351758154E-1 -1.0302871781382361E-1
1.3166188534748183E-1 -1.1419017615063533E-1
1.1665480721679329E-1 -1.236267478954864E-1
1.011694671084291E-1 -1.3132485459907636E-1
8.538914510459643E-2 -1.3728957919196758E-1
6.949124406469437E-2 -1.4154370280140427E-1
5.364574083989795E-2 -1.4412660474066585E-1
3.8013791866226325E-2 -1.4509304459002614E-1
2.2746495504636827E-2 -1.4451184385208804E-1
7.983820073702937E-3 -1.4246448686681312E-1
-6.146300934203791E-3 -1.3904365985227066E-1
4.2077296139631654E-1 -6.55051997846195E-1
-1.9528703600824107E-2 -1.343517473446521E-1
4.208396068593458E-1 -6.550642886361839E-1
3.4469455464954074E-1 -6.766793562554272E-1
2.686892514646447E-1 -6.90249636583445E-1
1.9360275359708104E-1 -6.960251821812501E-1
1.2016673824732996E-1 -6.943246346648592E-1
4.906026785565083E-2 -6.855285607740783E-1
-1.9094661704235242E-2 -6.70072487377444E-1
-8.373677548807779E-2 -6.484397152548806E-1
-1.4436837424488672E-1 -6.211539929308827E-1
-2.0055739591738125E-1 -5.887721306296594E-1
-2.5193870016262165E-1 -5.518766321393037E-1
-2.9821459912701737E-1 -5.110684191556404E-1
-3.391546649787705E-1 -4.669597183704513E-1
-3.745948510508934E-1 -4.201671766607433E-1
-4.0443596825939354E-1 -3.713052647385619E-1
-4.2864156444885065E-1 -3.209800227337263E-1
-4.4723525703790545E-1 -2.697831972579797E-1
-4.6029757291311896E-1 -2.1828680961146152E-1
-4.679623520577619E-1 -1.6703819291384026E-1
-4.704127739674415E-1 -1.1655552449237505E-1
-4.6787706638125987E-1 -6.73238775248274E-2
-4.606239545644376E-1 -1.979180751179857E-2
-4.4895791307517785E-1 2.563151867518567E-2
-4.332142773175198E-1 6.857864536048204E-2
-4.137542731509921E-1 1.0872560649735749E-1
-3.9096001936579156E-1 1.4579316707571474E-1
-3.6522955718446737E-1 1.7954754065793177E-1
-3.3697195551859965E-1 2.0980060201255302E-1
-3.066025405639423E-1 2.3640961572096456E-1
-2.745382921652083E-1 2.592765081332324E-1
-2.4119344683304714E-1 2.783467117672673E-1
-2.0697534296249284E-1 2.9360761559220566E-1
-1.7228053997134515E-1 3.050866554343663E-1
-1.3749123716637404E-1 3.128490825378265E-1
-1.0297201605149206E-1 3.1699544889743086E-1
-6.906692369486869E-2 3.1765884908239006E-1
-3.609691049368064E-2 3.1500195880621407E-1
-4.3576319514253056E-3 3.0921391121232883E-1
2.588238039510427E-2 3.0050705085795054E-1
5.4383178328838495E-2 2.8911360532209834E-1
8.093448870838252E-2 2.7528231219778404E-1
1.0535644522285897E-1 2.592750398278716E-1
1.2749996910382125E-1 2.413634356381699E-1
1.4724681289328365E-1 2.2182563718412376E-1
1.6450928241895793E-1 2.0094307484272803E-1
1.792296559208155E-1 1.7899739728374586E-1
1.9137932134249727E-1 1.562675432373856E-1
2.0095765413344835E-1 1.3302698482482103E-1
2.0799065982277942E-1 1.0954116095987701E-1
2.125294072987937E-1 8.606511957908286E-2
2.1464827907230005E-1 6.284138189071896E-2
2.144430649861056E-1 4.0098041054197626E-2
2.1202892796954417E-1 1.8047102155930216E-2
2.0753826818683804E-1 -3.1169296490850926E-3
2.0111851273008016E-1 -2.3218210867694825E-2
1.9292985875053156E-1 -4.210047165693215E-2
1.8314299357427571E-1 -5.96276807695945E-2
1.7193681696962204E-1 -7.568446706350446E-2
1.5949619094985876E-1 -9.017630816321244E-2
1.4600973765783276E-1 -1.0302949243186259E-1
1.3166770484117235E-1 -1.1419086783496585E-1
1.1665991909998533E-1 -1.2362738937141121E-1
1.0117384360628373E-1 -1.313254803942281E-1
8.539275480410267E-2 -1.3729022306187808E-1
6.949405099669992E-2 -1.415443946194196E-1
5.3647703995099875E-2 -1.441273671117649E-1
3.801486405669668E-2 -1.4509388890269545E-1
2.2746621766907674E-2 -1.445127656363677E-1
7.982935436701642E-3 -1.424654603980053E-1
-6.148274297476401E-3 -1.3904463245039866E-1
4.9630396792430825E-1 -6.252292536160313E-1
-1.9531859642608444E-2 -1.3435263334793185E-1
4.963729479885856E-1 -6.252350043740247E-1
4.208998369505265E-1 -6.550782126770756E-1
3.4474643090437357E-1 -6.766996804930514E-1
2.687331549414397E-1 -6.90274814036206E-1
1.936390759525763E-1 -6.960538570083049E-1
1.2019589902626235E-1 -6.943556154143713E-1
4.908272288487385E-2 -6.855608021788753E-1
-1.9078418363621646E-2 -6.701050777400571E-1
-8.372621452762215E-2 -6.484718676000286E-1
-1.4436293692096971E-1 -6.211850381323574E-1
-2.0055650189426164E-1 -5.888015114842104E-1
-2.5194175627734317E-1 -5.519038977170931E-1
-2.982210084730684E-1 -5.110932189503635E-1
-3.3916383591396987E-1 -4.6698179609660057E-1
-3.746062057418343E-1 -4.2018636339463983E-1
-4.044489504976788E-1 -3.71321471911627E-1
-4.2865564659835836E-1 -3.209932344302377E-1
-4.472499460585223E-1 -2.6979346198717363E-1
-4.603124151649444E-1 -2.182942323152324E-1
-4.679769372495286E-1 -1.670429268273821E-1
-4.704267381309115E-1 -1.1655776214351982E-1
-4.678900934341496E-1 -6.732384327490767E-2
-4.6063577706154446E-1 -1.9789749090908568E-2
-4.489683120581457E-1 2.5635337508323752E-2
-4.33223081358817E-1 6.858395203776203E-2
-4.137613563374473E-1 1.0873212627583244E-1
-3.9096529930349555E-1 1.4580062884006234E-1
-3.6523299157212885E-1 1.7955568251278103E-1
-3.3697353892213794E-1 2.0980917566324245E-1
-3.0660230078682804E-1 2.3641839057875016E-1
-2.74536286077593E-1 2.5928527426772147E-1
-2.4118975612134594E-1 2.783552823766757E-1
-2.0697007036524276E-1 2.936158289744458E-1
-1.7227380477124676E-1 3.050943756157706E-1
-1.3748317119599662E-1 3.1285619999528863E-1
-1.0296276012207385E-1 3.170018802369684E-1
-6.905662389189658E-2 3.1766453633955205E-1
-3.608571490831269E-2 3.1500686818411616E-1
-4.345687811583137E-3 3.092180313649412E-1
2.58949293890702E-2 3.0051039105340355E-1
5.439619404744131E-2 2.891161929594724E-1
8.094784047275883E-2 2.752841904450428E-1
1.053700110449661E-1 2.592762647330045E-1
1.275136367759127E-1 2.4136407381641228E-1
1.4726048077248402E-1 2.2182576239526697E-1
1.6452285937533417E-1 2.009427658941654E-1
1.7924306154120034E-1 1.78996735060739E-1
1.9139248552522983E-1 1.5626660832616482E-1
2.0097051651779815E-1 1.3302585503713665E-1
2.080031689444022E-1 1.0953990961860507E-1
2.1254152000513615E-1 8.606381323352592E-2
2.1465995901629314E-1 6.284007923764255E-2
2.1445428178554105E-1 4.0096791367652554E-2
2.1203965594492455E-1 1.8045944553295966E-2
2.075484849271871E-1 -3.117966645041194E-3
2.0112819867085485E-1 -2.3219110127729748E-2
1.9293899624066904E-1 -4.210122652523262E-2
1.831515641490201E-1 -5.9628294493348305E-2
1.7194480213317767E-1 -7.568495306803234E-2
1.5950357080713368E-1 -9.017668779007738E-2
1.460164907259481E-1 -1.030297941105144E-1
1.3167380670945145E-1 -1.1419112496160182E-1
1.1666534229957332E-1 -1.2362763827803598E-1
1.0117855704252363E-1 -1.3132575781352127E-1
8.539672327243583E-2 -1.372905632198927E-1
6.949723415367763E-2 -1.4154482582598374E-1
5.365005586647508E-2 -1.4412790794176056E-1
3.80163314115107E-2 -1.450945434387474E-1
2.2747141791065125E-2 -1.4451351778033975E-1
7.982432697049725E-3 -1.4246626711643434E-1
-6.1498918671153485E-3 -1.390454154283493E-1
5.70310702763563E-1 -5.870753107235774E-1
-1.9534706670613817E-2 -1.3435327053960644E-1
5.703813262045164E-1 -5.870741871031795E-1
4.9643503017820534E-1 -6.252431276526677E-1
4.2095381523975384E-1 -6.550936408937506E-1
3.4479267145283526E-1 -6.767207574253706E-1
2.6877200408446267E-1 -6.903001070360559E-1
1.9367089370983911E-1 -6.960821139060419E-1
1.2022107716538923E-1 -6.943857371595142E-1
4.910169259264235E-2 -6.85591825506293E-1
-1.9065186136269528E-2 -6.701361641594794E-1
-8.371821308886959E-2 -6.485022957272244E-1
-1.443596306269093E-1 -6.212141977346003E-1
-2.0055733449481913E-1 -5.888288982570618E-1
-2.519461599708428E-1 -5.519291080417708E-1
-2.982284130571294E-1 -5.111159443422686E-1
-3.391736777843667E-1 -4.67001817267622E-1
-3.746179362070053E-1 -4.202035435060903E-1
-4.044620432615552E-1 -3.713357497475395E-1
-4.286696045966352E-1 -3.210046168255781E-1
-4.4726430684324103E-1 -2.6980201589496E-1
-4.603267561076789E-1 -2.1830007702038953E-1
-4.679908773913019E-1 -1.6704622545113315E-1
-4.7043994294728286E-1 -1.1655871379704534E-1
-4.6790227462779665E-1 -6.732267511027437E-2
-4.606466934870226E-1 -1.978670851402609E-2
-4.48977769386169E-1 2.563998991979365E-2
-4.332309305850869E-1 6.858994955750779E-2
-4.1376749210914193E-1 1.0873920213906717E-1
-3.909696570561783E-1 1.4580852199454114E-1
-3.652355446373193E-1 1.7956414249852445E-1
-3.3697429512089244E-1 2.098179669740889E-1
-3.066012986665955E-1 2.3642729632322093E-1
-2.745335905610226E-1 2.592940985146819E-1
-2.4118545505844377E-1 2.783638529228557E-1
-2.0696427004951332E-1 2.9362399829503705E-1
-1.7226662593606E-1 3.0510202194495606E-1
-1.3747474536473095E-1 3.1286322730888916E-1
-1.029532258554202E-1 3.1700821791667755E-1
-6.904612353488784E-2 3.17670138397057E-1
-3.607439141973361E-2 3.150117114187411E-1
-4.333682132987707E-3 3.092221139964691E-1
2.5907480781112647E-2 3.005137305277954E-1
5.440916093558604E-2 2.891188233608257E-1
8.096110052943759E-2 2.752861601117206E-1
1.0538345094606134E-1 2.59277633776907E-1
1.2752715331718456E-1 2.4136491080101852E-1
1.4727398078624415E-1 2.2182614213980636E-1
1.6453626027629356E-1 2.009427666796481E-1
1.7925629090888634E-1 1.7899643581347724E-1
1.914054807632107E-1 1.5626608649095847E-1
2.009832240397457E-1 1.330251844125974E-1
2.0801554371205933E-1 1.0953915801233688E-1
2.1255352402157493E-1 8.606304128953458E-2
2.1467156053900613E-1 6.283933877514915E-2
2.1446545417640145E-1 4.009612430829127E-2
2.12050376029011E-1 1.8045382317580398E-2
2.0755873288233576E-1 -3.118404007771032E-3
2.011379564065897E-1 -2.3219412851723232E-2
1.929482454447102E-1 -4.2101395812580836E-2
1.831602868244231E-1 -5.962834174088995E-2
1.7195297865098777E-1 -7.568489859340204E-2
1.595111804961268E-1 -9.017655956489425E-2
1.4602350962335223E-1 -1.0302962616436466E-1
1.3168020806570682E-1 -1.1419095537174127E-1
1.1667109582808502E-1 -1.2362750681195606E-1
1.0118362840915085E-1 -1.313257031675009E-1
8.54010734039293E-2 -1.3729061976194404E-1
6.95008187586515E-2 -1.41545019970818E-1
5.3652824107878916E-2 -1.4412825364576662E-1
3.8018223613186373E-2 -1.4509503641967406E-1
2.2748086792277647E-2 -1.4451412863401095E-1
7.982343597820253E-3 -1.424669321529765E-1
-6.1511247237556336E-3 -1.3904602472710934E-1
6.419105245035681E-1 -5.405776850797815E-1
-1.9537224441928232E-2 -1.343536547489974E-1
6.419820232227125E-1 -5.405694376665089E-1
5.704445069132598E-1 -5.870763040119255E-1
4.964904257757858E-1 -6.252534443537051E-1
4.210017966627355E-1 -6.551103758260448E-1
3.4483354352676204E-1 -6.76742401154838E-1
2.6880606414801733E-1 -6.903253529272836E-1
1.9369846353473086E-1 -6.961098172482724E-1
1.2024251777613289E-1 -6.944148913441655E-1
4.9117408866406094E-2 -6.85621547951718E-1
-1.9054747269239156E-2 -6.701656876999288E-1
-8.371256822255091E-2 -6.485309623472774E-1
-1.4435826771846727E-1 -6.212414539081876E-1
-2.005597218071969E-1 -5.888542903610325E-1
-2.5195175540549913E-1 -5.519522775970069E-1
-2.982366733750879E-1 -5.111366228611288E-1
-3.391840676765404E-1 -4.6701982021202787E-1
-3.7462993604438755E-1 -4.202187644053559E-1
-4.044751567461258E-1 -3.7134815280733996E-1
-4.2868336493352394E-1 -3.2101422987476946E-1
-4.472782818764734E-1 -2.6980892266518103E-1
-4.6034055264211043E-1 -2.1830440923523065E-1
-4.6800414507170746E-1 -1.6704815473044843E-1
-4.7045237496356423E-1 -1.1655844445460858E-1
-4.679136096355875E-1 -6.732043590481589E-2
-4.6065671563823807E-1 -1.9782745369039432E-2
-4.4898630805077583E-1 2.5645420428763683E-2
-4.3323785811113624E-1 6.859658745662352E-2
-4.1377272223696204E-1 1.0874678945374106E-1
-3.9097314206755984E-1 1.458168081466336E-1
-3.652372723579436E-1 1.7957288899358373E-1
-3.369742852452289E-1 2.098269512152213E-1
-3.0659959931776104E-1 2.364363153374164E-1
-2.7453027389769574E-1 2.5930297056656865E-1
-2.4118061371868907E-1 2.7837242007404966E-1
-2.0695801286956894E-1 2.936321273246965E-1
-1.722590743075275E-1 3.0510960479519195E-1
-1.374660294522727E-1 3.1287018113429E-1
-1.0294348135130527E-1 3.1701448467443255E-1
-6.903548824047202E-2 3.176756830701607E-1
-3.606300265765673E-2 3.150165212307164E-1
-4.321674024514556E-3 3.092261960899742E-1
2.5919979297769673E-2 3.005171097063244E-1
5.442202790060727E-2 2.891215398402606E-1
8.09742221845391E-2 2.752882670259745E-1
1.053967229292198E-1 2.592791939965603E-1
1.2754048105606836E-1 2.4136599471906198E-1
1.472872799506766E-1 2.2182682480882002E-1
1.6454945656603015E-1 2.0094312502068234E-1
1.7926931984456335E-1 1.7899654636225168E-1
1.914182870307335E-1 1.5626602307524723E-1
2.0099576089325236E-1 1.3302501587141E-1
2.0802777186212515E-1 1.0953894660223822E-1
2.1256541066763665E-1 8.60628410762368E-2
2.1468307824506108E-1 6.283919430066981E-2
2.1447657951611962E-1 4.0096069775504506E-2
2.120610888937943E-1 1.8045440874306786E-2
2.075690153770775E-1 -3.1182199869020685E-3
2.0114779089588158E-1 -2.3219102122267566E-2
1.9295761430199793E-1 -4.2100967731498934E-2
1.831691714903735E-1 -5.9627815349764295E-2
1.7196135910556953E-1 -7.568430124366454E-2
1.595190338942973E-1 -9.017592585660628E-2
1.4603081031415563E-1 -1.0302899576951569E-1
1.3168692694276435E-1 -1.1419037097527214E-1
1.1667719986736386E-1 -1.2362701151609236E-1
1.0118908026804183E-1 -1.3132533746869215E-1
8.540583063148506E-2 -1.3729041815204981E-1
6.950483298606831E-2 -1.4154500667925826E-1
5.3656039440753686E-2 -1.4412843746483547E-1
3.802057448506126E-2 -1.4509540393954598E-1
2.274949315720471E-2 -1.4451463529586359E-1
7.982705402305086E-3 -1.4246748996822628E-1
-6.151938724083357E-3 -1.3904648457390895E-1
7.102018594253569E-1 -4.8581383255347244E-1
-1.9539391350265375E-2 -1.3435378360648698E-1
7.102733760295321E-1 -4.857983232825398E-1
6.420454360438547E-1 -5.405654703165327E-1
5.705005285769544E-1 -5.870814055637921E-1
4.965394574568062E-1 -6.252656861373391E-1
4.21044104940181E-1 -6.551281733394806E-1
3.448693581972515E-1 -6.767644026659747E-1
2.688356292150509E-1 -6.903503792035237E-1
1.9372206132672992E-1 -6.961368290396238E-1
1.2026047858593503E-1 -6.944429714890296E-1
4.913011164195728E-2 -6.856498914416347E-1
-1.904687931718082E-2 -6.70193595395158E-1
-8.370907485008844E-2 -6.485578368354804E-1
-1.4435866045777326E-1 -6.212667956874568E-1
-2.0056349346811397E-1 -5.888776939769466E-1
-2.519583895358684E-1 -5.519734273750513E-1
-2.982456539903117E-1 -5.111552879261806E-1
-3.3919488741038734E-1 -4.6703584898463135E-1
-3.746421044257936E-1 -4.2023207840459625E-1
-4.044882071077899E-1 -3.713587398541155E-1
-4.286968603941584E-1 -3.210221369318238E-1
-4.472918202365833E-1 -2.6981424854933617E-1
-4.603537700873413E-1 -2.1830729638750515E-1
-4.680167195988352E-1 -1.6704878230406603E-1
-4.704640274175883E-1 -1.1655702033334421E-1
-4.679241046205388E-1 -6.731718924054678E-2
-4.606658621616148E-1 -1.9777920023288126E-2
-4.489939570363984E-1 2.56515736177467E-2
-4.332439024217017E-1 6.860381580724928E-2
-4.137770936741188E-1 1.0875484432752873E-1
-3.9097580851994584E-1 1.4582544992157004E-1
-3.6523823488368046E-1 1.795818914902718E-1
-3.3697357440149E-1 2.0983610525144591E-1
-3.06597271359152E-1 2.3644543144592955E-1
-2.7452640715444077E-1 2.5931188134614036E-1
-2.411753044362511E-1 2.7838098199000555E-1
-2.069513716949976E-1 2.9364022096815273E-1
-1.7225122209690905E-1 3.051171355759356E-1
-1.3745709440872758E-1 3.128770791612853E-1
-1.0293359535149846E-1 3.17020703462541E-1
-6.902478413169749E-2 3.176811988206962E-1
-3.605161147681152E-2 3.1502133063237614E-1
-4.309722685649733E-3 3.0923031450269506E-1
2.5932369850729345E-2 3.005205687920159E-1
5.443474410241208E-2 2.8912438542363295E-1
8.098715918614523E-2 2.752905558178447E-1
1.0540978519052001E-1 2.5928099161732E-1
1.2755358297547106E-1 2.413673723992505E-1
1.4730034574222353E-1 2.218278570597307E-1
1.6456242025181686E-1 2.009438870436174E-1
1.7928212462249182E-1 1.7899711158803752E-1
1.9143088487676574E-1 1.562664610218892E-1
2.0100811147014302E-1 1.330253901516163E-1
2.0803984158669964E-1 1.0953931324404012E-1
2.1257717161746603E-1 8.606324710001619E-2
2.146945070133842E-1 6.283967671788308E-2
2.144876559358176E-1 4.009665459837118E-2
2.1207179568148543E-1 1.8046143128990142E-2
2.0757933560110384E-1 -3.1173964585414515E-3
2.0115770800889143E-1 -2.3218164537276452E-2
1.9296711091521082E-1 -4.2099933604172704E-2
1.831782287103918E-1 -5.9626711470956544E-2
1.7196995567375872E-1 -7.568316228174335E-2
1.5952714559208833E-1 -9.017479290193851E-2
1.4603840959169204E-1 -1.0302791415783671E-1
1.3169398244449443E-1 -1.141893879980098E-1
1.1668367607096984E-1 -1.2362617358143856E-1
1.011949369130671E-1 -1.313246870258086E-1
8.541102219016314E-2 -1.372899897056757E-1
6.950930752634711E-2 -1.415448222699071E-1
5.3659737030864275E-2 -1.4412850063907193E-1
3.802342266244287E-2 -1.450956915718049E-1
2.2751403842167377E-2 -1.445150866298954E-1
7.983563329929125E-3 -1.4246798869656674E-1
-6.152292061086603E-3 -1.390468317352343E-1
7.742731104618091E-1 -4.229548260588523E-1
-1.9541184168745878E-2 -1.3435365705822575E-1
7.743436664939094E-1 -4.2293207651812803E-1
7.103360058473078E-1 -4.8578837407015535E-1
6.421011625422279E-1 -5.405654028726857E-1
5.705498118922849E-1 -5.87089119469047E-1
4.9658252468458713E-1 -6.252795293808764E-1
4.2108110901734785E-1 -6.551467644780016E-1
3.449004543471299E-1 -6.767865437967641E-1
2.688610105625747E-1 -6.903750125813222E-1
1.937419737194491E-1 -6.96163014982922E-1
1.2027522383154117E-1 -6.94469877198349E-1
4.9140044239406995E-2 -6.856767849596912E-1
-1.9041358846603518E-2 -6.702198419957565E-1
-8.370752876829975E-2 -6.485828963418674E-1
-1.443606234633384E-1 -6.212902196340712E-1
-2.0056848255132145E-1 -5.88899122434131E-1
-2.519659141332867E-1 -5.519925849147814E-1
-2.982552247178463E-1 -5.111719790540724E-1
-3.392060249188802E-1 -4.6704995279355416E-1
-3.746543469982223E-1 -4.202435424580594E-1
-4.045011173513242E-1 -3.7136757361560074E-1
-4.287100308304426E-1 -3.210284047823509E-1
-4.4730487793884566E-1 -2.698180623668311E-1
-4.6036637987236584E-1 -2.1830880837023856E-1
-4.680285874195425E-1 -1.670481772702887E-1
-4.704749004535345E-1 -1.1655450864040857E-1
-4.679337727581623E-1 -6.731299953691199E-2
-4.6067415680334917E-1 -1.9772292072310453E-2
-4.490007509430487E-1 2.5658394584126547E-2
-4.3324910745782147E-1 6.861158519878888E-2
-4.1378065819894894E-1 1.0876332359304491E-1
-3.909777150773967E-1 1.4583441099964928E-1
-3.652384963095227E-1 1.7959112069276326E-1
-3.3697223095019624E-1 2.098454070505442E-1
-3.0659438628654884E-1 2.3645462976046366E-1
-2.7452206372452187E-1 2.593208233953588E-1
-2.4116960163075118E-1 2.783895378121225E-1
-2.0694442044613384E-1 2.936482848681337E-1
-1.722431424592678E-1 3.051246264758816E-1
-1.3744801170064586E-1 3.128839394497033E-1
-1.0292363717718951E-1 3.1702689826955505E-1
-6.901407762303075E-2 3.1768671428450973E-1
-3.604028081486615E-2 3.150261725558815E-1
-4.297887061798457E-3 3.0923450597931484E-1
2.5944597601356777E-2 3.0052414795542587E-1
5.444725923424444E-2 2.891274023940758E-1
8.099986569395104E-2 2.752930706570966E-1
1.0542259672487077E-1 2.592830714811811E-1
1.2756642257049194E-1 2.4136908900303822E-1
1.4731314630784778E-1 2.2182928393294626E-1
1.645751238791475E-1 2.0094509683092662E-1
1.7929468226500683E-1 1.7899817406261007E-1
1.914432553419489E-1 1.5626744104198312E-1
2.0102026072538393E-1 1.33026345335114E-1
2.0805174149901265E-1 1.0954029299880026E-1
2.1258879892632054E-1 8.606429101363797E-2
2.1470584202204485E-1 6.284081376747991E-2
2.144986819864736E-1 4.009790258519971E-2
2.1208249721108316E-1 1.8047508477519885E-2
2.075896972167062E-1 -3.1159186540439788E-3
2.011677139180366E-1 -2.321659008268225E-2
1.9297674381800314E-1 -4.2098288289388455E-2
1.8318746917909595E-1 -5.962503003388406E-2
1.719787813995102E-1 -7.568148670344E-2
1.5953553094742617E-1 -9.01731708603923E-2
1.4604632521750224E-1 -1.0302639673415098E-1
1.317013949620232E-1 -1.1418802713407175E-1
1.166905476334907E-1 -1.2362501919724503E-1
1.0120122483841183E-1 -1.3132378361074584E-1
8.541667843738039E-2 -1.3728937215220088E-1
6.951427723710846E-2 -1.415445108704701E-1
5.366395606595581E-2 -1.44128494099525E-1
3.802681434249049E-2 -1.4509595776768777E-1
2.2753871127321395E-2 -1.445155476651226E-1
7.984974444560176E-3 -1.4246849618668525E-1
-6.152130526505168E-3 -1.390471230432997E-1
8.332122010120814E-1 -3.522681223764954E-1
-1.954257766643087E-2 -1.343532781127064E-1
8.332806117713579E-1 -3.522384221921284E-1
7.744042777915111E-1 -4.229165215146864E-1
7.103903459760251E-1 -4.8578339112988594E-1
6.421497702027221E-1 -5.405687056551625E-1
5.70592859981716E-1 -5.870990118003182E-1
4.9662007041533063E-1 -6.252946270214296E-1
4.2111320207449254E-1 -6.551658743217633E-1
3.449271845859019E-1 -6.768086087811943E-1
2.688825274134686E-1 -6.903990861429398E-1
1.9375849145048707E-1 -6.961882490531448E-1
1.2028701904274162E-1 -6.944955170669627E-1
4.914744932041596E-2 -6.857021667293841E-1
-1.9037964636576952E-2 -6.7024439121266E-1
-8.370772921797831E-2 -6.486061265189698E-1
-1.443639757603069E-1 -6.213117303096609E-1
-2.0057452781523968E-1 -5.88918596279085E-1
-2.519741868084835E-1 -5.520097843271028E-1
-2.982652620350748E-1 -5.111867415984126E-1
-3.3921737512189926E-1 -4.6706218600135696E-1
-3.7466657673399245E-1 -4.202532179310275E-1
-4.0451381799798963E-1 -3.7137472053586246E-1
-4.287228237820033E-1 -3.210331030931727E-1
-4.4731741892505517E-1 -2.6982043568142555E-1
-4.603783618814298E-1 -2.1830901691989868E-1
-4.680397423397859E-1 -1.670464102807445E-1
-4.7048500126952003E-1 -1.1655097745853056E-1
-4.679426328993084E-1 -6.73079307320274E-2
-4.6068163023847425E-1 -1.976592136191075E-2
-4.4900673040131334E-1 2.5665828833019783E-2
-4.332535224291715E-1 6.861984726331478E-2
-4.13783472728888E-1 1.0877218530101791E-1
-3.9097892456253686E-1 1.4584365609823985E-1
-3.652381245397501E-1 1.7960054853818244E-1
-3.3697032628328016E-1 2.0985483509082262E-1
-3.06591018180009E-1 2.364638964773306E-1
-2.745173192214083E-1 2.593297896104422E-1
-2.411635811087412E-1 2.78398087434357E-1
-2.0693723502874786E-1 2.9365632602950065E-1
-1.7223491012157227E-1 3.0513209063566166E-1
-1.3743885401238842E-1 3.1289078084413163E-1
-1.0291367682460865E-1 3.170330929550766E-1
-6.900343505978783E-2 3.1769225823077646E-1
-3.6029073353555104E-2 3.1503107998189384E-1
-4.286225807617497E-3 3.09238806831836E-1
2.5956608379390348E-2 3.005278855516187E-1
5.445952373181067E-2 2.8913063145161394E-1
8.10122969517225E-2 2.752958539192785E-1
1.0543511716144192E-1 2.5928547713699607E-1
1.2757896429527985E-1 2.4137118849823863E-1
1.4732565055054278E-1 2.2183114875952673E-1
1.6458754087294492E-1 2.0094679670485424E-1
1.793069702020869E-1 1.789997744514542E-1
1.9145538004970258E-1 1.5626900105637578E-1
2.0103219413508155E-1 1.3302791673841569E-1
2.0806346068771192E-1 1.0954191811463618E-1
2.1260028501315187E-1 8.606600154442479E-2
2.147170792238361E-1 6.28426302364734E-2
2.1450965641665046E-1 4.009983428318379E-2
2.1209319478960922E-1 1.8049553002133043E-2
2.0760010429597614E-1 -3.1137752189511455E-3
2.0117781515663166E-1 -2.321437220489727E-2
1.9298652192933058E-1 -4.209603035100925E-2
1.831969042031666E-1 -5.962277457942862E-2
1.7198785001632055E-1 -7.567928333795157E-2
1.5954420613571182E-1 -9.017107396061295E-2
1.460545760546291E-1 -1.0302446320907696E-1
1.3170918628866285E-1 -1.1418631384475539E-1
1.166978395488895E-1 -1.2362357987644292E-1
1.0120797313468456E-1 -1.313226651921554E-1
8.542283298799082E-2 -1.3728861076188084E-1
6.951978131723144E-2 -1.4154412602813105E-1
5.366874312759763E-2 -1.4412848117177784E-1
3.803080473238153E-2 -1.45096277242986E-1
2.2756960487869324E-2 -1.445161058126195E-1
7.987014330467992E-3 -1.424691106118449E-1
-6.151378106667713E-3 -1.390474502283255E-1
8.861167885501795E-1 -2.741192227091712E-1
-1.9543543979575265E-2 -1.3435265399092666E-1
8.861814049328806E-1 -2.740834308455965E-1
8.333375991202215E-1 -3.522180925249266E-1
7.744559014702835E-1 -4.229071753399781E-1
7.104371909334484E-1 -4.857825994022081E-1
6.421919062616864E-1 -5.405747897987434E-1
5.706302111274899E-1 -5.87110633401303E-1
4.966525539352493E-1 -6.253106336496691E-1
4.2114078479759715E-1 -6.55185236305849E-1
3.449499045297884E-1 -6.768303927912437E-1
2.6890049920244213E-1 -6.904224445919799E-1
1.937719035975811E-1 -6.962124168085205E-1
1.2029612685910679E-1 -6.945198108065133E-1
4.9152565537692317E-2 -6.857259854577586E-1
-1.9036480342021624E-2 -6.702672164835403E-1
-8.370948104808758E-2 -6.48627521987646E-1
-1.443685429138069E-1 -6.213313402717542E-1
-2.0058147455876338E-1 -5.889361434163597E-1
-2.519830724951588E-1 -5.520250662531995E-1
-2.982756500213576E-1 -5.111996265846325E-1
-3.39228840803E-1 -4.670726078752315E-1
-3.746787145971876E-1 -4.202611703146531E-1
-4.045262476173564E-1 -3.713802504562405E-1
-4.2873519464771875E-1 -3.210363044060009E-1
-4.4732941432741913E-1 -2.698214420873026E-1
-4.603897017062409E-1 -2.18307994899232E-1
-4.6805018466963666E-1 -1.6704355226517706E-1
-4.704943432237257E-1 -1.1654649478158424E-1
-4.6795071101545954E-1 -6.730204739727257E-2
-4.6068831905281893E-1 -1.9758867569728153E-2
-4.4901194133455036E-1 2.5673822250610875E-2
-4.332572015731149E-1 6.862855397065493E-2
-4.137855982482367E-1 1.0878138807279426E-1
-3.9097950377806473E-1 1.4585315083873196E-1
-3.652371906427267E-1 1.7961014747413323E-1
-3.3696793479560627E-1 2.0986436944542233E-1
-3.0658724352198413E-1 2.3647321858006434E-1
-2.745122508848498E-1 2.593387740018778E-1
-2.4115732058388548E-1 2.7840663197300375E-1
-2.069298923588149E-1 2.9366435174589767E-1
-1.7222660016184185E-1 3.0513954137026505E-1
-1.3742969407663655E-1 3.128976224025667E-1
-1.0290378348472881E-1 3.170393115429161E-1
-6.899292285564079E-2 3.1769785908268383E-1
-3.601805118254051E-2 3.1503608482605344E-1
-4.27479699732534E-3 3.0924325208297654E-1
2.596834855743925E-2 3.005318197867871E-1
5.447148828549827E-2 2.891341124293296E-1
8.102440819864237E-2 2.75298946349353E-1
1.0544730662935037E-1 2.592882497848931E-1
1.2759117285172497E-1 2.413737115782246E-1
1.4733782790347164E-1 2.218334916382173E-1
1.6459964488140322E-1 2.009490255563737E-1
1.7931896665087707E-1 1.7900194998060392E-1
1.9146724140728777E-1 1.5627117662777454E-1
2.0104389775919457E-1 1.3303013708505879E-1
2.0807498865960192E-1 1.0954421767616573E-1
2.126116230584795E-1 8.606840399182093E-2
2.147282148539591E-1 6.284514764981322E-2
2.1452057757990978E-1 4.010246719454826E-2
2.1210389040384806E-1 1.805228931661796E-2
2.0761056130834515E-1 -3.110958135696974E-3
2.0118801860807636E-1 -2.3211507965031006E-2
1.929964547390246E-1 -4.209316173346451E-2
1.8320654573290052E-1 -5.9619952487391284E-2
1.7199717593319072E-1 -7.567656494653263E-2
1.595531883105511E-1 -9.016852048723009E-2
1.4606318217502964E-1 -1.0302213776548572E-1
1.317173794683027E-1 -1.1418427847709643E-1
1.1670557925020965E-1 -1.2362189263693339E-1
1.0121521360299658E-1 -1.3132137661095653E-1
8.542952348420343E-2 -1.372877592152121E-1
6.952586449840768E-2 -1.4154373214298718E-1
5.367415338280938E-2 -1.441285402018309E-1
3.803546140192157E-2 -1.4509674608253142E-1
2.2760756765057993E-2 -1.4451688063335888E-1
7.989788917575368E-3 -1.4246997915723142E-1
-6.149916433990063E-3 -1.390479718921956E-1
9.321054066560727E-1 -1.889717753562637E-1
-1.9544051490451842E-2 -1.3435179806723235E-1
9.321632192928584E-1 -1.889323305856925E-1
8.862324717591774E-1 -2.7405998734728076E-1
8.333848205600374E-1 -3.522053810851726E-1
7.744996915247137E-1 -4.229028715154256E-1
7.104773893485967E-1 -4.8578519122921165E-1
6.422282314230859E-1 -5.405830731071158E-1
5.70662404392096E-1 -5.871235520518313E-1
4.9668043109646787E-1 -6.253272226543283E-1
4.2116425304045213E-1 -6.552046020009467E-1
3.4496896440940517E-1 -6.768517076580237E-1
2.689152396758748E-1 -6.904449479159258E-1
1.937824932874656E-1 -6.962354175424493E-1
1.2030280356880528E-1 -6.945426906091932E-1
4.915562487542281E-2 -6.857482011370515E-1
-1.903669657048452E-2 -6.702883014386307E-1
-8.371259665184655E-2 -6.486470864238979E-1
-1.44374158011544E-1 -6.213490703095439E-1
-2.0058917623480182E-1 -5.889517989157368E-1
-2.519924444277929E-1 -5.520384775889182E-1
-2.982862812149638E-1 -5.112106904455312E-1
-3.392403332484759E-1 -4.6708128227965134E-1
-3.746906900828455E-1 -4.202674688917244E-1
-4.045383531768806E-1 -3.7138423633780504E-1
-4.28747107134791E-1 -3.210380836323677E-1
-4.473408438564513E-1 -2.698211569168738E-1
-4.6040039407527095E-1 -2.183058167612013E-1
-4.6805992271494556E-1 -1.6703967546850446E-1
-4.7050294746280097E-1 -1.1654112960402013E-1
-4.6795803933208646E-1 -6.729541399398795E-2
-4.6069426564597143E-1 -1.9751189997978612E-2
-4.4901643507180866E-1 2.568232132361518E-2
-4.332602037706839E-1 6.863765814054111E-2
-4.1378710000573926E-1 1.0879089146439222E-1
-3.9097952303020017E-1 1.4586286174217408E-1
-3.6523576880226044E-1 1.7961989126478675E-1
-3.369651333853701E-1 2.0987399103513638E-1
-3.0658314069319986E-1 2.3648258402764996E-1
-2.745069378513256E-1 2.593477716386326E-1
-2.4115089900335845E-1 2.784151729317228E-1
-2.069224697296777E-1 2.9367236982342626E-1
-1.7221828793008362E-1 3.0514699232817294E-1
-1.3742060441368273E-1 3.1290448291633993E-1
-1.0289402709593366E-1 3.170455776767869E-1
-6.898260645354254E-2 3.1770354459197503E-1
-3.6007276205681206E-2 3.1504121863839885E-1
-4.2636579050277165E-3 3.0924787645442126E-1
2.597976534762554E-2 3.005359874219743E-1
5.4483105021781914E-2 2.891378839025165E-1
8.103615627456785E-2 2.753023875571124E-1
1.0545912673574878E-1 2.592914293788416E-1
1.2760301442324626E-1 2.413766981287037E-1
1.4734964888930857E-1 2.2183635154769585E-1
1.6461141114621564E-1 2.0095182057173466E-1
1.7933065098882034E-1 1.7900473550772558E-1
1.9147882190862864E-1 1.5627399981681164E-1
2.01055358070608E-1 1.3303303544645897E-1
2.080863158884027E-1 1.0954721779776308E-1
2.1262280644679907E-1 8.607152097352122E-2
2.1473924501567243E-1 6.284838458899336E-2
2.1453144587719036E-1 4.010581476876475E-2
2.1211458604809194E-1 1.805572691013879E-2
2.076210727219276E-1 -3.107462939125863E-3
2.0119833189715605E-1 -2.3207997702204504E-2
1.9300655219256357E-1 -4.208968816497636E-2
1.8321640618307006E-1 -5.961657489868802E-2
1.7200677439656095E-1 -7.567334815506076E-2
1.595624955593022E-1 -9.01655329714828E-2
1.460721647315344E-1 -1.030194490117929E-1
1.3172600008913696E-1 -1.1418195645585857E-1
1.1671379628352613E-1 -1.2362000070594101E-1
1.0122298141887197E-1 -1.3131996991992445E-1
8.543679222524496E-2 -1.3728688056452057E-1
6.953257924827339E-2 -1.4154340666752208E-1
5.3680251773420236E-2 -1.4412876771705022E-1
3.804086874786488E-2 -1.450974887391689E-1
2.2765373662162008E-2 -1.445180386822996E-1
7.99345644412321E-3 -1.4247133209676358E-1
-6.147534379742065E-3 -1.3904899143791566E-1
9.703307114932822E-1 -9.738464233053756E-2
-1.954406259510245E-2 -1.343507335611573E-1
9.703738053547483E-1 -9.734951783311E-2
9.322046926215096E-1 -1.8890904891921687E-1
8.862730620211826E-1 -2.7404558418880215E-1
8.334239978149148E-1 -3.5219849933555947E-1
7.74536773548521E-1 -4.2290249883341097E-1
7.105117559702634E-1 -4.857904148985395E-1
6.422593789940114E-1 -5.405930189051175E-1
5.706899578022011E-1 -5.871373716981391E-1
4.967041414346029E-1 -6.253440965488167E-1
4.2118398941759555E-1 -6.552237469427715E-1
3.4498470324631125E-1 -6.768723853866709E-1
2.689270525669608E-1 -6.904664733402803E-1
1.9379053433791538E-1 -6.962571656498183E-1
1.203072965546098E-1 -6.94564101885038E-1
4.9156850575911605E-2 -6.857687853734994E-1
-1.9038413002074855E-2 -6.703076399008078E-1
-8.371689723001405E-2 -6.486648325870855E-1
-1.4438066322710072E-1 -6.213649491135588E-1
-2.005974953629929E-1 -5.889656047724734E-1
-2.520021849525858E-1 -5.520500712002384E-1
-2.9829705719903765E-1 -5.112199946857642E-1
-3.39251772822516E-1 -4.6708827730538655E-1
-3.7470244155598326E-1 -4.202721864882966E-1
-4.045500903334996E-1 -3.7138675392273074E-1
-4.2875853332462516E-1 -3.210385178051387E-1
-4.473516950492093E-1 -2.6981965680081227E-1
-4.60410441019192E-1 -2.1830255788003475E-1
-4.680689718493296E-1 -1.6703485255230277E-1
-4.705108413818968E-1 -1.1653495084349783E-1
-4.679646561835104E-1 -6.728809478729171E-2
-4.6069951798114617E-1 -1.974294755741475E-2
-4.490202678674488E-1 2.569127316715471E-2
-4.3326259230846464E-1 6.864711337435163E-2
-4.1378804706189204E-1 1.088006559000636E-1
-3.909790558258226E-1 1.458727562561995E-1
-3.652339358263661E-1 1.796297545335631E-1
-3.3696200101433604E-1 2.0988368157453816E-1
-3.0657878964561297E-1 2.3649198154595422E-1
-2.7450146065642705E-1 2.593567779132325E-1
-2.4114439549394184E-1 2.78423712244362E-1
-2.0691504485982484E-1 2.936803882471069E-1
-1.7221004875135468E-1 3.051544570972334E-1
-1.3741165754493598E-1 3.129113811093459E-1
-1.0288447627856856E-1 3.1705191470536553E-1
-6.897255103801982E-2 3.1770934193073336E-1
-3.599680921977294E-2 3.150465120752746E-1
-4.252864929955727E-3 3.0925271320827774E-1
2.5990807001648922E-2 3.005404237923363E-1
5.4494326864661394E-2 2.8914198259222723E-1
8.104749894916478E-2 2.753062151288549E-1
1.0547053978951565E-1 2.5929505356472365E-1
1.2761445591064766E-1 2.4138018528308453E-1
1.4736108494777528E-1 2.2183976445459785E-1
1.6462281514097432E-1 2.00955216292385E-1
1.7934200236386932E-1 1.7900816353695453E-1
1.9149010543159403E-1 1.5627750064000406E-1
2.0106656251608665E-1 1.3303663866986273E-1
2.080974328297145E-1 1.0955094170219554E-1
2.126338290264263E-1 8.607537173399106E-2
2.147501671155341E-1 6.285235594735808E-2
2.1454226021942163E-1 4.010988807705626E-2
2.1212528449891865E-1 1.8059871724638358E-2
2.0763164440865925E-1 -3.1032884470339616E-3
2.012087628575417E-1 -2.320384547113772E-2
1.930168248499193E-1 -4.208561889231993E-2
1.8322649897266222E-1 -5.961265637730072E-2
1.7201666160889395E-1 -7.566965337980644E-2
1.5957214723364724E-1 -9.016213788449164E-2
1.4608154691559935E-1 -1.030164302037976E-1
1.3173507505020646E-1 -1.141793885674327E-1
1.1672252282303078E-1 -1.2361795343963136E-1
1.0123131539614522E-1 -1.313185049836528E-1
8.544468687539013E-2 -1.3728604820471665E-1
6.953998526661272E-2 -1.415432414058396E-1
5.3687116173039104E-2 -1.4412928261515878E-1
3.8047133718975605E-2 -1.4509866698007517E-1
2.2770967899927184E-2 -1.4451981558467403E-1
7.998268485679751E-3 -1.4247354630937503E-1
-6.143789459697503E-3 -1.390511700494972E-1
1.0000000000000375 1.7608433115241974E-11
-1.9543528651166382E-2 -1.3434950161722944E-1
1.0000000000000375 1.7608433115241974E-11
9.703993705559699E-1 -9.733273569547704E-2
9.322356346410098E-1 -1.8889560576826925E-1
8.863057404073579E-1 -2.740375032428687E-1
8.334566156406608E-1 -3.5219593852408704E-1
7.74568146148364E-1 -4.2290510026217665E-1
7.105410303825369E-1 -4.8579761339969796E-1
6.422859341855405E-1 -5.406041537765522E-1
5.707133564993925E-1 -5.871517414673039E-1
4.9672410048168164E-1 -6.253609919396421E-1
4.212003581207041E-1 -6.552424734096344E-1
3.449974449720424E-1 -6.768922797886325E-1
2.689362286433233E-1 -6.904869162965398E-1
1.9379628887840797E-1 -6.962775909795599E-1
1.2030984233147662E-1 -6.945840033902418E-1
4.915645524748421E-2 -6.857877213663512E-1
-1.904143932264324E-2 -6.7032523586337E-1
-8.372221404171987E-2 -6.48680782045761E-1
-1.4438791067028334E-1 -6.213790130330029E-1
-2.0060630432687948E-1 -5.889776095535056E-1
-2.5201218615372023E-1 -5.520599055328832E-1
-2.9830788927865065E-1 -5.112276055500842E-1
-3.3926308925338E-1 -4.670936649520596E-1
-3.747139165314684E-1 -4.2027539904867334E-1
-4.0456142356245E-1 -3.713878813890484E-1
-4.287694537512759E-1 -3.210376857288077E-1
-4.473619635500501E-1 -2.698170201329066E-1
-4.604198520077576E-1 -2.182982943065672E-1
-4.6807735442459997E-1 -1.670291565977771E-1
-4.7051805883714726E-1 -1.1652802738415104E-1
-4.679706057629324E-1 -6.72801537790122E-2
-4.6070412920068965E-1 -1.9734198629072924E-2
-4.4902350066402913E-1 2.5700625547414837E-2
-4.33264434525146E-1 6.865687403917953E-2
-4.137885118552542E-1 1.0881064261045287E-1
-3.909781785258737E-1 1.4588280265723141E-1
-3.652317708267966E-1 1.7963971262742257E-1
-3.369586182281871E-1 2.098934234017556E-1
-3.0657427208666593E-1 2.3650140030641328E-1
-2.7449589998570717E-1 2.593657887893578E-1
-2.4113788975125278E-1 2.784322520718012E-1
-2.0690769543925217E-1 2.93688415038759E-1
-1.7220195772065128E-1 3.051619490713503E-1
-1.374029251888613E-1 3.129183353299735E-1
-1.0287519942590198E-1 3.1705834517874903E-1
-6.896282079161298E-2 3.177152776004348E-1
-3.5986709996048694E-2 3.1505199458136446E-1
-4.242473312343034E-3 3.092577942628295E-1
2.6001422913587972E-2 3.0054516261147307E-1
5.4505107999957246E-2 2.8914644347479995E-1
8.105839504490792E-2 2.7531046454821806E-1
1.0548150918564674E-1 2.592991576632622E-1
1.2762546527316185E-1 2.4138420768916458E-1
1.473721083745147E-1 2.2184376380857623E-1
1.6463383328138786E-1 2.0095924434503695E-1
1.7935300150289074E-1 1.790122635778282E-1
1.91501076275988E-1 1.562817056741575E-1
2.0107749894282936E-1 1.3304097020299302E-1
2.0810833078842508E-1 1.0955540927295711E-1
2.126446853639812E-1 8.607997225856019E-2
2.1476097828664695E-1 6.285707350112955E-2
2.1455302143665558E-1 4.011469440266758E-2
2.1213598892066848E-1 1.8064726419416186E-2
2.076422819694791E-1 -3.098436968474307E-3
2.0121931994942938E-1 -2.319905867040145E-2
1.930272838599451E-1 -4.20809666589065E-2
1.832368380419368E-1 -5.960821532865008E-2
1.7202685454433503E-1 -7.56655049081434E-2
1.5958216371365044E-1 -9.015836596512068E-2
1.4609135292957898E-1 -1.030131191774437E-1
1.3174463344960147E-1 -1.1417662068940346E-1
1.1673179385389626E-1 -1.2361580638980488E-1
1.012402583545345E-1 -1.313170497083603E-1
8.545326095777216E-2 -1.3728534654283775E-1
6.954815115874764E-2 -1.4154334431982274E-1
5.3694840438537325E-2 -1.441302300495262E-1
3.805439230776018E-2 -1.4510048955625576E-1
2.2777758313058585E-2 -1.4452254522028357E-1
8.004642650145648E-3 -1.4247725675713427E-1
-6.137578836042699E-3 -1.3905618342821682E-1
1.0000000000000375 1.7608433115241974E-11
9.704167649852979E-1 -9.732403561481451E-2
9.322595913620618E-1 -1.888881894928712E-1
8.863323846670847E-1 -2.7403379384276255E-1
8.334838657803648E-1 -3.521965210378259E-1
7.745946572331222E-1 -4.229098922740649E-1
7.105658646117872E-1 -4.858062331012942E-1
6.423084265666471E-1 -5.406160719393904E-1
5.70733047573668E-1 -5.87166357980656E-1
4.967406961987621E-1 -6.25377680677325E-1
4.2121370187514473E-1 -6.552606112410436E-1
3.4500749603361186E-1 -6.769112668366338E-1
2.6894304367827093E-1 -6.905061905660573E-1
1.9380000572950326E-1 -6.962966388668687E-1
1.2031066491106333E-1 -6.946023670578196E-1
4.915463995014083E-2 -6.858050036829936E-1
-1.904559648979627E-2 -6.703411030972304E-1
-8.372838926658402E-2 -6.486949648258337E-1
-1.4439576311889893E-1 -6.213913056563086E-1
-2.0061548593316694E-1 -5.889878679865328E-1
-2.520223503520935E-1 -5.520680443011173E-1
-2.983186986056887E-1 -5.112335935701984E-1
-3.3927422190476875E-1 -4.670975207448325E-1
-3.747250718045127E-1 -4.2027718528364516E-1
-4.0457232620830536E-1 -3.713876990661796E-1
-4.287798573384843E-1 -3.2103566788000687E-1
-4.473716527765998E-1 -2.698133258888457E-1
-4.604286440475634E-1 -2.1829310288780665E-1
-4.680850993803414E-1 -1.6702266072806052E-1
-4.7052463980374387E-1 -1.1652042796591958E-1
-4.679759378277295E-1 -6.727165475153371E-2
-4.607081574464354E-1 -1.9725001140313538E-2
-4.490261985426015E-1 2.5710326872553754E-2
-4.3326580129621195E-1 6.866689519425875E-2
-4.137885697614468E-1 1.0882081352826005E-1
-3.9097696985134317E-1 1.458929699040689E-1
-3.652293544910892E-1 1.7964974154320865E-1
-3.369550674345517E-1 2.0990319936209978E-1
-3.065696699071741E-1 2.3651083004651585E-1
-2.7449033717028515E-1 2.5937480030804577E-1
-2.4113146153010093E-1 2.7844079452933673E-1
-2.0690049891863477E-1 2.936964579634634E-1
-1.721940892755566E-1 3.0516948122808785E-1
-1.3739447865043447E-1 3.129253631763335E-1
-1.0286626368030556E-1 3.1706489080599526E-1
-6.895347874144264E-2 3.1772137674662976E-1
-3.597703714669144E-2 3.150576941903734E-1
-4.23253707864192E-3 3.092631498842221E-1
2.6011563827078914E-2 3.0055023584435486E-1
5.4515403742627117E-2 2.891512993446026E-1
8.10688044807581E-2 2.75315168892228E-1
1.0549199955790772E-1 2.5930377465087295E-1
1.2763601157037882E-1 2.4138879747752442E-1
1.4738269247095495E-1 2.2184838031667542E-1
1.6464444318969457E-1 2.009639338425705E-1
1.7936362988053983E-1 1.7901706219482172E-1
1.915117195092089E-1 1.5628663849276042E-1
2.010881559257407E-1 1.330460503829572E-1
2.0811900170739853E-1 1.0956063725461684E-1
2.1265537043297547E-1 8.608533535359769E-2
2.1477167666348665E-1 6.286254603389953E-2
2.1456373048392552E-1 4.012023790180599E-2
2.1214670291457113E-1 1.8070290376356712E-2
2.0765299172118312E-1 -3.0929140400630436E-3
2.012300122027235E-1 -2.319364797292624E-2
1.9303794102556973E-1 -4.207574754259559E-2
1.83247438078252E-1 -5.960327352894492E-2
1.7203737110391285E-1 -7.566093063283497E-2
1.595925665885109E-1 -9.015425175747588E-2
1.4610160863081478E-1 -1.0300955797019998E-1
1.3175470615365348E-1 -1.1417370359499247E-1
1.1674164729447861E-1 -1.2361362132053907E-1
1.0124985712162432E-1 -1.3131567992833096E-1
8.54625737348042E-2 -1.372848709393223E-1
6.955715641055822E-2 -1.4154384044303492E-1
5.370353526232639E-2 -1.4413178307087202E-1
3.806281372537313E-2 -1.4510321835482237E-1
2.278604226139215E-2 -1.4452668429665042E-1
8.013257133490709E-3 -1.424834997035537E-1
1.0000000000000375 1.7608433115241974E-11
9.704296416820896E-1 -9.731945197203826E-2
9.322786636771226E-1 -1.8888458174535322E-1
8.863543268685176E-1 -2.740331079018333E-1
8.335066822974756E-1 -3.521993555473096E-1
7.746170141253375E-1 -4.2291624932583155E-1
7.105868256616057E-1 -4.8581581743614416E-1
6.423273299998435E-1 -5.406284323147321E-1
5.707494390980682E-1 -5.871809639847118E-1
4.967542873499525E-1 -6.253939691755316E-1
4.212243406341441E-1 -6.552780171046696E-1
3.450151440432784E-1 -6.769292441487788E-1
2.689477572371473E-1 -6.905242277709515E-1
1.9380191906399596E-1 -6.963142695770247E-1
1.2030997506903458E-1 -6.946191775560014E-1
4.915159317211341E-2 -6.858206377523661E-1
-1.9050717452653954E-2 -6.703552647077871E-1
-8.373527663378957E-2 -6.48707418913648E-1
-1.4440409453889602E-1 -6.214018773636315E-1
-2.0062493386201832E-1 -5.889964405749853E-1
-2.520325903391826E-1 -5.520745559369994E-1
-2.9832941648623956E-1 -5.112380332139831E-1
-3.392851198758177E-1 -4.670999233332054E-1
-3.747358734467285E-1 -4.2027762637887206E-1
-4.0458278041323414E-1 -3.713862888543919E-1
-4.287897412780698E-1 -3.2103254570077616E-1
-4.4738077385153446E-1 -2.698086541178332E-1
-4.604368409208854E-1 -2.182870606722999E-1
-4.680922423767913E-1 -1.6701543840895977E-1
-4.705306303433579E-1 -1.165122216540544E-1
-4.679807071418483E-1 -6.726266094180675E-2
-4.607116651648393E-1 -1.9715412411901938E-2
-4.490284303898046E-1 2.5720326158301107E-2
-4.3326676662502467E-1 6.867713255748883E-2
-4.1378829874844386E-1 1.0883113127572652E-1
-3.9097551033719424E-1 1.4590322757982732E-1
-3.6522676954554584E-1 1.7965981763764508E-1
-3.3695143130555755E-1 2.09912992811431E-1
-3.065650656463475E-1 2.3652026056141887E-1
-2.744848535130638E-1 2.593838085389972E-1
-2.411251902470186E-1 2.78449341552982E-1
-2.0689353202306837E-1 2.937045244078338E-1
-1.7218651722404363E-1 3.0517706594641986E-1
-1.3738638778449858E-1 3.1293248136896296E-1
-1.0285773502064542E-1 3.1707157219398574E-1
-6.894458649882351E-2 3.177276632505426E-1
-3.5967847870272004E-2 3.1506363739375315E-1
-4.223108803626093E-3 3.0926880857255823E-1
2.602118178674012E-2 3.005556733509159E-1
5.452517082330336E-2 2.8915658087667956E-1
8.107868862736217E-2 2.753203590408775E-1
1.0550197675987634E-1 2.5930893496815843E-1
1.2764606502411927E-1 2.413939841501114E-1
1.4739281179774302E-1 2.2185364222105744E-1
1.6465462323171667E-1 2.009693105639238E-1
1.7937386971194821E-1 1.7902258267317672E-1
1.9152202098354154E-1 1.5629231961865012E-1
2.0109852279611365E-1 1.330518964883734E-1
2.081294381345952E-1 1.0956663927566823E-1
2.1266587989749325E-1 8.609147074718337E-2
2.1478226096030223E-1 6.28687789305674E-2
2.1457438864187175E-1 4.012651947085896E-2
2.1215743059279696E-1 1.807655983671663E-2
2.0766378048052528E-1 -3.0867283362828E-3
2.0124084919595267E-1 -2.3187627197037805E-2
1.9304880876258415E-1 -4.206998077645903E-2
1.8325831458378433E-1 -5.959785605391899E-2
1.7204823018843046E-1 -7.565596173473323E-2
1.596033785258536E-1 -9.01498333950131E-2
1.4611234128183243E-1 -1.0300579251551767E-1
1.3176532651537784E-1 -1.1417069278413325E-1
1.1675212353684047E-1 -1.2361146540413004E-1
1.0126016218408616E-1 -1.313144785329383E-1
8.547269063106637E-2 -1.3728472671964662E-1
6.956708849744192E-2 -1.415448691617655E-1
5.37133259212709E-2 -1.4413413837049227E-1
3.80725944478268E-2 -1.4510715819650838E-1
2.2796175721060262E-2 -1.445327798024863E-1
1.0000000000000375 1.7608433115241974E-11
9.704396613110801E-1 -9.731721086106017E-2
9.322941390835968E-1 -1.8888345614384644E-1
8.863725187332984E-1 -2.740345140018256E-1
8.335257967665107E-1 -3.52203773157534E-1
7.746358048556146E-1 -4.229236777342512E-1
7.106044043996592E-1 -4.8582599478234667E-1
6.423430663574138E-1 -5.406409523284958E-1
5.707629014856962E-1 -5.871953446167647E-1
4.967652039874381E-1 -6.254096960612993E-1
4.212325712031689E-1 -6.552945730629028E-1
3.450206572421854E-1 -6.769461298716282E-1
2.689506120339586E-1 -6.905409764902847E-1
1.9380224796240694E-1 -6.963304576560729E-1
1.2030796956987383E-1 -6.946344315976075E-1
4.914749025000366E-2 -6.858346392784282E-1
-1.9056647660790977E-2 -6.703677525366201E-1
-8.374274184898442E-2 -6.487181897220927E-1
-1.4441279040624092E-1 -6.214107848055774E-1
-2.0063455285298185E-1 -5.890033930315896E-1
-2.5204282956765056E-1 -5.520795132239068E-1
-2.983399844147477E-1 -5.112410024583914E-1
-3.3929574198791695E-1 -4.671009541315335E-1
-3.7474629668050613E-1 -4.202768054026811E-1
-4.0459277692566903E-1 -3.713837344419445E-1
-4.28799110791488E-1 -3.2102840214361805E-1
-4.473893453324349E-1 -2.6980308544965004E-1
-4.6044447342515005E-1 -2.1828024516938346E-1
-4.680988249587106E-1 -1.6700756289741953E-1
-4.705360814434915E-1 -1.1650347658983111E-1
-4.679849731516769E-1 -6.725323518846879E-2
-4.6071471881981446E-1 -1.970548929497555E-2
-4.4903026841835764E-1 2.5730573024798743E-2
-4.3326740723425766E-1 6.868754243371897E-2
-4.1378777867979116E-1 1.088415589410866E-1
-3.909738824090076E-1 1.4591354556448868E-1
-3.652240989859669E-1 1.796699178010377E-1
-3.3694779314710727E-1 2.0992278717107923E-1
-3.0656054183541476E-1 2.365296816507319E-1
-2.744795300891573E-1 2.593928093177908E-1
-2.4111915458049177E-1 2.7845789468509224E-1
-2.068868707272346E-1 2.937126211941786E-1
-1.721793138787749E-1 3.0518471465512875E-1
-1.3737872120000127E-1 3.1293970561695666E-1
-1.0284967793250473E-1 3.1707840866666603E-1
-6.893620430230005E-2 3.1773415939749267E-1
-3.59591978044321E-2 3.150698489434957E-1
-4.2142395466644965E-3 3.0927479688640835E-1
2.6030230385202024E-2 3.005615028867059E-1
5.453436747544473E-2 2.8916231645725915E-1
8.108801030042243E-2 2.7532606343689675E-1
1.0551140796505415E-1 2.5931466646586726E-1
1.2765559706223523E-1 2.4139979439321385E-1
1.4740244181079282E-1 2.218595744540183E-1
1.6466435291765144E-1 2.0097539753488924E-1
1.7938370407222776E-1 1.790288453972419E-1
1.9153196742944822E-1 1.5629876660997064E-1
2.0110858961355338E-1 1.330585227432144E-1
2.0813963331607338E-1 1.095734259256384E-1
2.1267621003908596E-1 8.60983850486762E-2
2.147927302312832E-1 6.287577452301711E-2
2.1458499787483945E-1 4.0133537049263736E-2
2.1216817659214213E-1 1.808352811628376E-2
2.0767465562387158E-1 -3.0798914354371186E-3
2.0125184105960045E-1 -2.3181013060154194E-2
1.9305990013948376E-1 -4.206368848638162E-2
1.832694837594731E-1 -5.9591990537807005E-2
1.7205945141835288E-1 -7.565063243308305E-2
1.59614623205228E-1 -9.014515194771644E-2
1.461235795079066E-1 -1.0300187208569368E-1
1.317765289795935E-1 -1.1416764720983134E-1
1.1676326502478221E-1 -1.23609410010316E-1
1.0127122661989989E-1 -1.3131353337194024E-1
8.548368023463492E-2 -1.3728502520803493E-1
6.957803927241771E-2 -1.4154657703088525E-1
5.3724341568140974E-2 -1.4413749867454664E-1
3.808392430531356E-2 -1.451126030443388E-1
1.0000000000000375 1.7608433115241974E-11
9.704476907424437E-1 -9.73164080962668E-2
9.323068488308571E-1 -1.8888398320585045E-1
8.863876558502455E-1 -2.7403735881203445E-1
8.335417879620187E-1 -3.5220927069195723E-1
7.74651520150245E-1 -4.2293178949437926E-1
7.106190257861141E-1 -4.8583646500722183E-1
6.423560104320456E-1 -5.406534003935698E-1
5.70773769818003E-1 -5.872093229864283E-1
4.9677374840612665E-1 -6.254247293308526E-1
4.2123866765012447E-1 -6.55310184630003E-1
3.4502428449892675E-1 -6.769618612389426E-1
2.689518335012777E-1 -6.905564012204515E-1
1.938011959392803E-1 -6.963451909387066E-1
1.2030483082670104E-1 -6.946481371777478E-1
4.9142493011721675E-2 -6.858470335203553E-1
-1.9063245342485217E-2 -6.703786065133348E-1
-8.375066281760896E-2 -6.487273295180087E-1
-1.4442174788436832E-1 -6.214180903812258E-1
-2.006442588328074E-1 -5.890087958401262E-1
-2.520530021578646E-1 -5.520829928355844E-1
-2.983503540598198E-1 -5.112425823584815E-1
-3.3930605654987167E-1 -4.671006968542366E-1
-3.747563258241605E-1 -4.2027480751790786E-1
-4.04602314902206E-1 -3.713801209640523E-1
-4.2880797880118704E-1 -3.210233207590719E-1
-4.473973928180665E-1 -2.697967009209336E-1
-4.6045157850060414E-1 -2.182727337819211E-1
-4.6810489423242135E-1 -1.669991073343018E-1
-4.705410491203071E-1 -1.164942607977467E-1
-4.6798879951618727E-1 -6.724343997594028E-2
-4.607173883739873E-1 -1.969528811517514E-2
-4.490317876515556E-1 2.574101759030877E-2
-4.3326780191761005E-1 6.869808149758971E-2
-4.1378709131234104E-1 1.0885205999971734E-1
-3.9097216903827037E-1 1.4592389422883487E-1
-3.652214264785673E-1 1.7968001899410269E-1
-3.3694423635132176E-1 2.0993256585062645E-1
-3.065561806679339E-1 2.3653908288257824E-1
-2.7447444712473495E-1 2.594017982055312E-1
-2.411134322287366E-1 2.7846645493925326E-1
-2.0688058949779994E-1 2.937207542095845E-1
-1.7217255018244962E-1 3.051924378475963E-1
-1.373715459988841E-1 3.129470503322157E-1
-1.028421553088698E-1 3.1708541803015067E-1
-6.892839055796088E-2 3.1774088585268945E-1
-3.5951140860642654E-2 3.1507635171658166E-1
-4.20597858952002E-3 3.0928113936730295E-1
2.603866493719718E-2 3.005677500290772E-1
5.454295351832924E-2 2.891685320849822E-1
8.109673368838101E-2 2.7533230789973984E-1
1.0552026167861776E-1 2.593209942512533E-1
1.2766458044663603E-1 2.414062522640119E-1
1.474115592162013E-1 2.2186619926498657E-1
1.6467361261051808E-1 2.0098221472504257E-1
1.7939311713986705E-1 1.790358679601601E-1
1.915415464229394E-1 1.5630599404480305E-1
2.0111834718653268E-1 1.3306594038468517E-1
2.0814958115875304E-1 1.0958100479640687E-1
2.1268635770596192E-1 8.610608191435426E-2
2.1480308415259536E-1 6.288353234480741E-2
2.1459556054064338E-1 4.0141285795690124E-2
2.1217894603589527E-1 1.809118572555323E-2
2.0768562501676185E-1 -3.072417625031335E-3
2.0126299844171802E-1 -2.3173824886191175E-2
1.930712286899547E-1 -4.20568953066618E-2
1.8328096220877807E-1 -5.958570761594188E-2
1.7207105500470518E-1 -7.56449791348308E-2
1.5962632520517775E-1 -9.014025091069429E-2
1.461353526414514E-1 -1.0299784816153565E-1
1.3178834900131162E-1 -1.1416462801804952E-1
1.1677511511597513E-1 -1.2360752836434954E-1
1.0128310443511257E-1 -1.313129335909336E-1
8.54956103488653E-2 -1.3728587656074817E-1
6.9590095515504E-2 -1.4154910217447977E-1
5.373669008916735E-2 -1.4414203273058465E-1
1.0000000000000375 1.7608433115241974E-11
9.704542375277924E-1 -9.731653049693885E-2
9.323173594523998E-1 -1.8888562049163699E-1
8.864002610716843E-1 -2.7404117543156276E-1
8.335551208038698E-1 -3.522154674757787E-1
7.746645728148008E-1 -4.2294028010927676E-1
7.106310592492413E-1 -4.8584698743408383E-1
6.423664956055735E-1 -5.406655887966854E-1
5.707823468672814E-1 -5.872227559977286E-1
4.9678019669616286E-1 -6.254389635382092E-1
4.212428819919737E-1 -6.553247786651719E-1
3.450262554040805E-1 -6.769763931661209E-1
2.689516301534893E-1 -6.905704809894815E-1
1.9379895099775632E-1 -6.963584695584348E-1
1.2030072676079419E-1 -6.946603126525456E-1
4.9136749727806586E-2 -6.858578545502694E-1
-1.907038163776039E-2 -6.703878740255864E-1
-8.375892974615436E-2 -6.48734896821157E-1
-1.444308758458746E-1 -6.214238616844534E-1
-2.00653978895136E-1 -5.890127237564431E-1
-2.520630528249636E-1 -5.520850748727536E-1
-2.9836048698163375E-1 -5.112428565555636E-1
-3.3931604145945365E-1 -4.6709923753627525E-1
-3.7476595384598255E-1 -4.202717194479259E-1
-4.0461140150322705E-1 -3.713755343916317E-1
-4.288163655863259E-1 -3.210173857168828E-1
-4.474049484822567E-1 -2.697895818301972E-1
-4.604581990550073E-1 -2.182646041305642E-1
-4.681105024950261E-1 -1.669901446244618E-1
-4.7054559386905254E-1 -1.1648464216911222E-1
-4.679922535462336E-1 -6.72333373523E-2
-4.6071974671322585E-1 -1.968486479144884E-2
-4.490330654014909E-1 2.5751610340577234E-2
-4.332680312925111E-1 6.870870698140998E-2
-4.137863191235152E-1 1.0886259833356278E-1
-3.909704538329458E-1 1.4593424403130043E-1
-3.6521883579905656E-1 1.7969009815733902E-1
-3.3694084386921525E-1 2.0994231210073638E-1
-3.0655206366165555E-1 2.3654845372508748E-1
-2.744696837434448E-1 2.594107700507467E-1
-2.4110809951440879E-1 2.7847502239844496E-1
-2.0687476129712964E-1 2.9372892844065435E-1
-1.7216629548091608E-1 3.052002447481203E-1
-1.3736492742648543E-1 3.129545285169374E-1
-1.0283522811694787E-1 3.170926164747651E-1
-6.892120184479891E-2 3.1774786143484846E-1
-3.594372908521451E-2 3.150831665854745E-1
-4.198373390833458E-3 3.09287858367348E-1
2.6046442415159847E-2 3.0057443795622085E-1
5.455089038842508E-2 2.8917525126045557E-1
8.110482458473633E-2 2.753391156917171E-1
1.0552850800887563E-1 2.5932794095379347E-1
1.276729891872219E-1 2.4141337893071546E-1
1.4742014189112343E-1 2.2187353606975901E-1
1.6468238399237967E-1 2.0098977946975852E-1
1.794020940464063E-1 1.7904366502863053E-1
1.9155074633783006E-1 1.5631401355428318E-1
2.0112778710637794E-1 1.3307415777066245E-1
2.0815927626842265E-1 1.0958938063486023E-1
2.1269632034128277E-1 8.611456222112378E-2
2.148133229455101E-1 6.289204922542074E-2
2.1460607954299968E-1 4.014975818754313E-2
2.1218974458118084E-1 1.8099520677138534E-2
2.0769669695681295E-1 -3.064323584847712E-3
2.0127433242081288E-1 -2.316608423142055E-2
1.9308280842650502E-1 -4.204962794828443E-2
1.8329276730140256E-1 -5.957903924804422E-2
1.7208306178366714E-1 -7.563904014864192E-2
1.5963850903240648E-1 -9.013517517635614E-2
1.4614769010535467E-1 -1.0299377319495458E-1
1.318008218705002E-1 -1.1416169649947086E-1
1.1678771606247282E-1 -1.2360589234077204E-1
1.0129584630441843E-1 -1.3131276340979978E-1
8.550854103924296E-2 -1.3728737822212064E-1
6.960332274715347E-2 -1.4155254893816183E-1
1.0000000000000375 1.7608433115241974E-11
9.704596274847849E-1 -9.731726234544953E-2
9.323260765443612E-1 -1.888879983643448E-1
8.864107386478688E-1 -2.740456234147404E-1
8.335661748657759E-1 -3.5222207319438065E-1
7.746753132844749E-1 -4.2294891065833984E-1
7.106408272120223E-1 -4.8585737013160807E-1
6.423748186508865E-1 -5.406773672034982E-1
5.707889059614675E-1 -5.872355296974875E-1
4.9678480039932305E-1 -6.254523167180623E-1
4.212454451260976E-1 -6.553383013316505E-1
3.4502678105200557E-1 -6.769896963072886E-1
2.689501936223663E-1 -6.905832082036234E-1
1.9379568558624938E-1 -6.963703049066692E-1
1.2029581082537369E-1 -6.946709859542606E-1
4.9130395017909716E-2 -6.858671444479594E-1
-1.907794058050183E-2 -6.703956092233581E-1
-8.376744507561137E-2 -6.487409557823627E-1
-1.4444009480745718E-1 -6.214281709741474E-1
-2.006636511335756E-1 -5.890152553259932E-1
-2.520729365443292E-1 -5.520858422822906E-1
-2.983703546958302E-1 -5.112419114715666E-1
-3.3932568349369974E-1 -4.670966638596679E-1
-3.7477518206313387E-1 -4.2026762904260345E-1
-4.0462005153049824E-1 -3.7137006149656465E-1
-4.288242982855774E-1 -3.2101068164824087E-1
-4.4741205062332834E-1 -2.697818096670922E-1
-4.6046438331268996E-1 -2.1825593373744864E-1
-4.6811570679937303E-1 -1.6698074786270686E-1
-4.705497799828396E-1 -1.1647468818140862E-1
-4.679954056110862E-1 -6.72229889802773E-2
-4.6072186936767756E-1 -1.967427465876085E-2
-4.4903418079982177E-1 2.5762302108658923E-2
-4.332681769223658E-1 6.871937614936936E-2
-4.1378554521148425E-1 1.0887313793604726E-1
-3.9096882048185755E-1 1.459445654102883E-1
-3.652164102341178E-1 1.7970013206766736E-1
-3.3693769786082406E-1 2.0995200885006488E-1
-3.06548270926701E-1 2.365577827284955E-1
-2.74465317595441E-1 2.5941971902610605E-1
-2.4110323102701867E-1 2.7848359631317227E-1
-2.0686945732719167E-1 2.937371476786904E-1
-1.7216061707219946E-1 3.052081432299714E-1
-1.3735892869581323E-1 3.129621515920029E-1
-1.0282895528061713E-1 3.171000184615887E-1
-6.891469268045354E-2 3.1775510301470583E-1
-3.593701247421566E-2 3.1509031233663337E-1
-4.191469594377655E-3 3.0929497390259253E-1
2.6053521665994797E-2 3.0058158747308295E-1
5.455814120656887E-2 2.8918249491837195E-1
8.111225039671399E-2 2.7534650745895217E-1
1.0553611834224139E-1 2.593355262604431E-1
1.276807986513729E-1 2.4142119280155366E-1
1.4742816895310495E-1 2.2188160150571543E-1
1.646906497324988E-1 2.0099810617221936E-1
1.7941062080042414E-1 1.790522483923244E-1
1.91559556493785E-1 1.563228340241602E-1
2.011369017464779E-1 1.3308318050125356E-1
2.0816871390094124E-1 1.0959855548094423E-1
2.1270609603234228E-1 8.612382426492195E-2
2.1482344740389492E-1 6.290131944764767E-2
2.1461655841111618E-1 4.015894435638873E-2
2.1220057831386674E-1 1.810851878332402E-2
2.0770788015809355E-1 -3.055627975929926E-3
2.012858543976667E-1 -2.315781445491434E-2
1.9309465362344067E-1 -4.204191464611895E-2
1.8330491602774332E-1 -5.957201904174713E-2
1.7209549253987885E-1 -7.56328543323395E-2
1.5965119935935154E-1 -9.01299695361174E-2
1.4616062078548556E-1 -1.029896984854235E-1
1.3181398115955958E-1 -1.1415891100891491E-1
1.1680110655418739E-1 -1.2360456741733888E-1
1.01309495168392E-1 -1.313130937792369E-1
8.552251500082773E-2 -1.3728959902964114E-1
1.0000000000000375 1.7608433115241974E-11
9.704640850477834E-1 -9.731839643243531E-2
9.323333030996629E-1 -1.8889085638596909E-1
8.864194093256312E-1 -2.740504503766056E-1
8.335752649741895E-1 -3.522288651047466E-1
7.746840417790926E-1 -4.2295749390485077E-1
7.106486124529794E-1 -4.858674612082844E-1
6.423812442459165E-1 -5.406886168668308E-1
5.707936937581995E-1 -5.872475555906497E-1
4.967877882134837E-1 -6.254647277355495E-1
4.212465679829253E-1 -6.553507157344659E-1
3.450260545161612E-1 -6.770017557355867E-1
2.689476990850635E-1 -6.905945873651486E-1
1.937915569153075E-1 -6.963807185853431E-1
1.2029022222403275E-1 -6.946801935664896E-1
4.912355005024347E-2 -6.858749525612551E-1
-1.9085818953716836E-2 -6.704018723296375E-1
-8.377612333421536E-2 -6.487455756147169E-1
-1.4444933668169474E-1 -6.214310946458553E-1
-2.0067322429409187E-1 -5.890164723599303E-1
-2.520826187231679E-1 -5.520853812199636E-1
-2.9837993787696065E-1 -5.112398351198826E-1
-3.393349781239934E-1 -4.670930649770357E-1
-3.7478401971396047E-1 -4.2026262515648927E-1
-4.046282869193056E-1 -3.713637897161683E-1
-4.2883181040262075E-1 -3.210032935081068E-1
-4.4741874311053625E-1 -2.697734660176868E-1
-4.6047018424021785E-1 -2.1824679994218527E-1
-4.6812056785120804E-1 -1.6697098930998017E-1
-4.7055367491704936E-1 -1.1646446589896761E-1
-4.679983288857417E-1 -6.721245599312788E-2
-4.6072383329232225E-1 -1.9663573161518226E-2
-4.490352138273887E-1 2.5773044127383536E-2
-4.332683209317731E-1 6.873004679003905E-2
-4.137848527556105E-1 1.0888364270812681E-1
-3.9096735217987116E-1 1.4595482865547435E-1
-3.6521423222869737E-1 1.797100971380953E-1
-3.3693487913757664E-1 2.0996163845594035E-1
-3.065448810502802E-1 2.3656705792189256E-1
-2.744614245344597E-1 2.5942863839095254E-1
-2.4109889953110406E-1 2.7849217479184546E-1
-2.0686474665581436E-1 2.937454143218143E-1
-1.7215558012056745E-1 3.0521613961160804E-1
-1.3735361081225034E-1 3.1296992925779815E-1
-1.0282339355162566E-1 3.171076364756337E-1
-6.890891533307085E-2 3.177626254756668E-1
-3.593103901552254E-2 3.1509780550299654E-1
-4.185310759708292E-3 3.0930250369707546E-1
2.6059863378618018E-2 3.005892168873331E-1
5.456467100004723E-2 2.8919028156937143E-1
8.111898015695437E-2 2.7535450122302235E-1
1.0554306565843921E-1 2.593437672638734E-1
1.2768798554251423E-1 2.414297095573696E-1
1.4743562075460295E-1 2.2189040944564994E-1
1.6469839357421642E-1 2.010072064821799E-1
1.794186843652527E-1 1.7906162704533612E-1
1.9156796710879478E-1 1.5633246168203824E-1
2.011456841991265E-1 1.3309301154071065E-1
2.0817789001097237E-1 1.0960852888483813E-1
2.1271568344372746E-1 8.613386393102523E-2
2.1483345871238102E-1 6.2911335060117E-2
2.146270011552291E-1 4.016883239023611E-2
2.122114536309424E-1 1.811816404053057E-2
2.0771918359830888E-1 -3.04635104356464E-3
2.0129757600962606E-1 -2.3149040139139383E-2
1.9310677847500685E-1 -4.203378448714546E-2
1.8331742612455987E-1 -5.956468052544386E-2
1.721083674512016E-1 -7.562646009411608E-2
1.5966441965444672E-1 -9.012467722488758E-2
1.4617417145374262E-1 -1.029856719521719E-1
1.318278566969724E-1 -1.1415632339307055E-1
1.1681531814865774E-1 -1.2360360694876749E-1
1.013240802817129E-1 -1.3131397279749812E-1
1.0000000000000375 1.7608433115241974E-11
9.704677737099562E-1 -9.7319790421922E-2
9.323392736836691E-1 -1.8889400613160232E-1
8.864265334683716E-1 -2.7405546669029707E-1
8.335826560032311E-1 -3.5223567160917846E-1
7.74691017695553E-1 -4.22965883608469E-1
7.106546641086858E-1 -4.858771417942318E-1
6.423860088663651E-1 -5.406992457423315E-1
5.707969326379322E-1 -5.872587669935272E-1
4.9678936768079174E-1 -6.254761532792695E-1
4.212464424617841E-1 -6.553620003239964E-1
3.4502425157811795E-1 -6.770125693746033E-1
2.6894430577595985E-1 -6.906046338118622E-1
1.9378670731727013E-1 -6.963897413616967E-1
1.2028408615640145E-1 -6.946879797580289E-1
4.911632275987645E-2 -6.858813347432926E-1
-1.9093926033173295E-2 -6.704067289565068E-1
-8.378489082288103E-2 -6.487488299559855E-1
-1.4445854437943575E-1 -6.214327127016424E-1
-2.006826577218893E-1 -5.890164596945361E-1
-2.52092074047053E-1 -5.520837794712707E-1
-2.9838922621678077E-1 -5.112367173669914E-1
-3.393439290036229E-1 -4.670885312744569E-1
-3.747924834239595E-1 -4.2025679744852423E-1
-4.046361362267289E-1 -3.713568069993783E-1
-4.2883894121143495E-1 -3.209953064655911E-1
-4.4742507478824656E-1 -2.697646324635103E-1
-4.6047565906909926E-1 -2.182372800858703E-1
-4.6812515001546556E-1 -1.6696094139942272E-1
-4.70557349038506E-1 -1.1645404228651753E-1
-4.680010979066879E-1 -6.72017997932314E-2
-4.607257168337297E-1 -1.9652815286178845E-2
-4.490362453541012E-1 2.57837876518366E-2
-4.332685455941595E-1 6.874067619626184E-2
-4.1378432439721463E-1 1.08894076448023E-1
-3.9096613120995E-1 1.459650036814209E-1
-3.652123827617835E-1 1.7971996954655783E-1
-3.3693246684158523E-1 2.099711826676122E-1
-3.065419707720942E-1 2.3657626647583002E-1
-2.7445807854807036E-1 2.594375205169216E-1
-2.410951752857542E-1 2.785007546217909E-1
-2.0686069588194586E-1 2.9375372945905465E-1
-1.721512472670302E-1 3.052242386772241E-1
-1.3734903230269846E-1 3.129778695056193E-1
-1.0281859710243661E-1 3.171154812667437E-1
-6.89039198144486E-2 3.1777044153791234E-1
-3.592585435393824E-2 3.151056604171206E-1
-4.179938303280235E-3 3.0931046317712685E-1
2.6065430344456443E-2 3.005973421556891E-1
5.4570446516923235E-2 2.891986270836976E-1
8.1124984559127E-2 2.753631123765963E-1
1.0554932445067357E-1 2.593526783902249E-1
1.2769452792172928E-1 2.41438942230622E-1
1.4744247855983467E-1 2.2189997116537677E-1
1.647056002525528E-1 2.0101708948114091E-1
1.7942627308428585E-1 1.7907180783942298E-1
1.9157596916670425E-1 1.563429001376434E-1
2.0115412835670007E-1 1.3310365146609132E-1
2.081868012203578E-1 1.0961929811350365E-1
2.12725081712216E-1 8.614467506509459E-2
2.148433589120804E-1 6.292208617803957E-2
2.1463741189499572E-1 4.0179408721699415E-2
2.1222237718813605E-1 1.812843901714178E-2
2.077306164152955E-1 -3.036514097422818E-3
2.0130950875045556E-1 -2.31397865132801E-2
1.9311919755808213E-1 -4.2025266541254463E-2
1.833303139892E-1 -5.95570566749888E-2
1.7212170567078364E-1 -7.561989397678472E-2
1.596781914039111E-1 -9.011933791217841E-2
1.461883654239614E-1 -1.0298173527640025E-1
1.318424722414341E-1 -1.1415397483923116E-1
1.1683037173406641E-1 -1.2360304604925906E-1
1.0000000000000375 1.7608433115241974E-11
9.704708178864385E-1 -9.73213430981427E-2
9.323441753176119E-1 -1.8889730852219844E-1
8.864323265704013E-1 -2.740605285484099E-1
8.335885735872426E-1 -3.5224236040270235E-1
7.746964668422496E-1 -4.229739663376752E-1
7.106592025307589E-1 -4.8588632013012273E-1
6.423893239763461E-1 -5.407091844300211E-1
5.707988230346978E-1 -5.872691161865764E-1
4.967897265436232E-1 -6.254865662875467E-1
4.21245242538783E-1 -6.553721469982752E-1
3.4502153151219717E-1 -6.770221465352333E-1
2.6894015753197387E-1 -6.906133725657055E-1
1.9378126469128326E-1 -6.963974122037905E-1
1.2027751420537025E-1 -6.946943957329655E-1
4.910880825493109E-2 -6.85886352713462E-1
-1.910218320679045E-2 -6.704102496219897E-1
-8.379368518409548E-2 -6.487507965040921E-1
-1.4446767172314945E-1 -6.21433108321514E-1
-2.006919206211637E-1 -5.890153046532742E-1
-2.5210128659494274E-1 -5.520811270175053E-1
-2.983982178597984E-1 -5.11232649489802E-1
-3.393525474355258E-1 -4.6708315407900647E-1
-3.7480059672440874E-1 -4.202502363542626E-1
-4.046436339547595E-1 -3.7134920153321616E-1
-4.2884573518565045E-1 -3.209868058213229E-1
-4.474310988722926E-1 -2.6975539058366865E-1
-4.6048086851244535E-1 -2.1822745128405552E-1
-4.681295204183987E-1 -1.669506762876553E-1
-4.7056087422795134E-1 -1.1644348402545539E-1
-4.68003788920202E-1 -6.719108129003512E-2
-4.607275990102947E-1 -1.9642055948945903E-2
-4.490373562654427E-1 2.5794483692046875E-2
-4.33268932453118E-1 6.875122187016021E-2
-4.1378404181258654E-1 1.0890440266579908E-1
-3.9096523832503416E-1 1.459750601334861E-1
-3.652109411193049E-1 1.7972972447151142E-1
-3.3693053805678824E-1 2.0998062239509788E-1
-3.065396145404275E-1 2.365853945455094E-1
-2.744553506197963E-1 2.594463562181068E-1
-2.4109212610709022E-1 2.7850933128120947E-1
-2.0685736900300508E-1 2.937620925916002E-1
-1.7214767857668115E-1 3.052324434488424E-1
-1.3734524915882287E-1 3.1298597832835673E-1
-1.028146179016666E-1 3.171235612165804E-1
-6.889975387465394E-2 3.1777856168057456E-1
-3.592150213823083E-2 3.151138890185882E-1
-4.175391727270561E-3 3.0931886518491836E-1
2.6070187161290875E-2 3.0060597663188493E-1
5.457543633201934E-2 2.89207544815591E-1
8.11302360186439E-2 2.7537235376768754E-1
1.0555487032030436E-1 2.593622715115835E-1
1.2770040516957046E-1 2.4144890132320576E-1
1.4744872572454532E-1 2.2191029530689502E-1
1.6471225614728296E-1 2.010277617573984E-1
1.794333759210007E-1 1.7908279468455837E-1
1.9158355465106894E-1 1.5635415082971435E-1
2.0116222889739918E-1 1.3311509876244634E-1
2.081954447532824E-1 1.0963085855245339E-1
2.1273429084200726E-1 8.615624948168829E-2
2.1485315024933524E-1 6.293356144441334E-2
2.1464779513257182E-1 4.019065845536439E-2
2.1223335590230674E-1 1.8139325395136022E-2
2.0774218773323078E-1 -3.0261388974124337E-3
2.0132166439717938E-1 -2.313007860777716E-2
1.931319241050811E-1 -4.201638905883144E-2
1.8334359517429896E-1 -5.954917847178482E-2
1.7213552448519248E-1 -7.561318907070631E-2
1.5969253301199976E-1 -9.011398555614714E-2
1.4620322092059526E-1 -1.0297792095922169E-1
1.3185784319144217E-1 -1.141518919058632E-1
1.0000000000000375 1.7608433115241974E-11
9.70473315579612E-1 -9.73229806236631E-2
9.323481607558503E-1 -1.8890065933770836E-1
8.864369699079833E-1 -2.740655263182003E-1
8.33593211948887E-1 -3.5224882978343247E-1
7.747005869987376E-1 -4.2298165509972224E-1
7.106624231673472E-1 -4.8589492707420157E-1
6.423913788522866E-1 -5.407183826324465E-1
5.707995453196267E-1 -5.872785717142673E-1
4.967890342897231E-1 -6.254959533995578E-1
4.2124312530026986E-1 -6.553811594940886E-1
3.45018037847558E-1 -6.77030506611516E-1
2.6893538346094314E-1 -6.906208371807177E-1
1.9377534302425037E-1 -6.964037773430405E-1
1.2027060483152383E-1 -6.946994987427664E-1
4.9101089226629036E-2 -6.858900731963832E-1
-1.9110523481641918E-2 -6.704125090199248E-1
-8.380245515320137E-2 -6.487515562713485E-1
-1.4447668263704116E-1 -6.214323675379594E-1
-2.0070099165200822E-1 -5.890130966479284E-1
-2.521102491220199E-1 -5.520775154036789E-1
-2.9840691879866127E-1 -5.11227723898155E-1
-3.393608517917536E-1 -4.670770255675683E-1
-3.748083892013208E-1 -4.2024303251054923E-1
-4.0465082001112207E-1 -3.7134106184787424E-1
-4.2885224132054667E-1 -3.209778769625825E-1
-4.4743687222912143E-1 -2.697458218639437E-1
-4.6048587614743536E-1 -2.182173905397203E-1
-4.6813374778620925E-1 -1.6694026576307897E-1
-4.705643241425405E-1 -1.1643285778603114E-1
-4.6800647871137796E-1 -6.718036128776197E-2
-4.607295588686182E-1 -1.9631350130506417E-2
-4.490386267803638E-1 2.5805083386515437E-2
-4.332695622506326E-1 6.876164083171683E-2
-4.137840850872398E-1 1.08914584487756E-1
-3.909647524489522E-1 1.4598496691753088E-1
-3.652099843486142E-1 1.797393365457463E-1
-3.3692916746327534E-1 2.0998993760520232E-1
-3.065378840828833E-1 2.3659442713076181E-1
-2.7445330935708107E-1 2.594551352447668E-1
-2.410898168514732E-1 2.7851789883912736E-1
-2.0685482723603968E-1 2.9377050156131823E-1
-1.7214493134758518E-1 3.0524075513091964E-1
-1.3734231463248506E-1 3.1299425985930596E-1
-1.0281150511103589E-1 3.1713188289142386E-1
-6.889646260299069E-2 3.1778699430263263E-1
-3.591802331797159E-2 3.1512250113600293E-1
-4.171708033274844E-3 3.0932772044313106E-1
2.6074100569103347E-2 3.006151313356557E-1
5.457961082744114E-2 2.892170456181265E-1
8.113470806493465E-2 2.753822356055078E-1
1.0555968133726507E-1 2.593725559314053E-1
1.277055984431513E-1 2.4145959476571693E-1
1.4745434608987426E-1 2.219213881661045E-1
1.6471834825539616E-1 2.0103922749382686E-1
1.7943998271086467E-1 1.7909458922501048E-1
1.915907161672633E-1 1.563662128130781E-1
2.0116998115557488E-1 1.3312734971221749E-1
2.0820381850258438E-1 1.0964320338307099E-1
2.1274331096650853E-1 8.616857772860159E-2
2.1486283474586088E-1 6.294574818988811E-2
2.1465815556124654E-1 4.020256590094247E-2
2.1224439667093278E-1 1.8150804445077367E-2
2.0775390682476963E-1 -3.0152470108868326E-3
2.0133405355541664E-1 -2.3119940673915138E-2
1.9314497065787128E-1 -4.200717839163281E-2
1.8335728356689562E-1 -5.954107369880189E-2
1.7214983851807172E-1 -7.560637335068505E-2
1.5970745868092145E-1 -9.010864625092013E-2
1.4621874957009418E-1 -1.0297424965014867E-1
1.0000000000000375 1.7608433115241974E-11
9.704753461441644E-1 -9.732464816085695E-2
9.323513572104646E-1 -1.8890398005466028E-1
8.864406180030636E-1 -2.7407037652177546E-1
8.335967397068845E-1 -3.5225500223006984E-1
7.747035522591907E-1 -4.2298888435738474E-1
7.106644997941466E-1 -4.8590291218183196E-1
6.423923428684577E-1 -5.407268063147085E-1
5.707992614988833E-1 -5.872871163023E-1
4.9678744337345815E-1 -6.255043134644631E-1
4.212402319280759E-1 -6.553890518989873E-1
3.4501389915946407E-1 -6.770376778633705E-1
2.689300985111777E-1 -6.906270688311288E-1
1.937690429684824E-1 -6.964088894002723E-1
1.2026344387649394E-1 -6.947033514759733E-1
4.9093236519141076E-2 -6.858925675019981E-1
-1.91188911656274E-2 -6.704135854700554E-1
-8.381115986527096E-2 -6.487511932935206E-1
-1.4448555072912142E-1 -6.214305786297846E-1
-2.007098583792847E-1 -5.89009926873512E-1
-2.521189624453584E-1 -5.520730375048725E-1
-2.9841534230238526E-1 -5.112220339769152E-1
-3.393688667681776E-1 -4.6707023843489975E-1
-3.748158960705816E-1 -4.202352771203078E-1
-4.0465773898048496E-1 -3.713324766184482E-1
-4.28858512404125E-1 -3.2096860525498466E-1
-4.474424546873658E-1 -2.6973600772301254E-1
-4.604907476589447E-1 -2.182071744644026E-1
-4.681379030226922E-1 -1.6692978197206418E-1
-4.7056777297817365E-1 -1.1642223004275212E-1
-4.6800924409851413E-1 -6.716970068268908E-2
-4.607316748303888E-1 -1.9620752872553857E-2
-4.490401360483467E-1 2.5815537571822478E-2
-4.3327051395493976E-1 6.877188985508693E-2
-4.1378453236270335E-1 1.0892458446221691E-1
-3.9096475011279586E-1 1.459946923079409E-1
-3.65209586859987E-1 1.7974877950988216E-1
-3.3692842688275243E-1 2.0999910721718265E-1
-3.0653684818073396E-1 2.3660334803640545E-1
-2.7445202023453785E-1 2.5946384593811905E-1
-2.4108830961400843E-1 2.78526449705779E-1
-2.0685312882588808E-1 2.937789524988003E-1
-1.7214305992374548E-1 3.052491731036531E-1
-1.3734027915668687E-1 3.13002716232925E-1
-1.0280930517230975E-1 3.1714045071099456E-1
-6.889408845047293E-2 3.177957456783846E-1
-3.5915456576728365E-2 3.1513150426893544E-1
-4.168922156743033E-3 3.0933703724351036E-1
2.6077139346092317E-2 3.006248149251861E-1
5.4582942379130917E-2 2.8922713810168915E-1
8.113837726284397E-2 2.753927661278546E-1
1.0556373645831138E-1 2.59383538753348E-1
1.277100899196054E-1 2.414710283388616E-1
1.4745932492850666E-1 2.2193325376815082E-1
1.6472386458487603E-1 2.0105148863593195E-1
1.79446084315432E-1 1.7910719138384484E-1
1.9159744721683516E-1 1.563790835691553E-1
2.011773810730475E-1 1.3314039916640613E-1
2.0821192086024287E-1 1.0965632493732881E-1
2.1275214281461716E-1 8.618164925139608E-2
2.1487241583780214E-1 6.29586330480124E-2
2.146684984163793E-1 4.021511500653638E-2
2.1225550660207476E-1 1.8162857615995644E-2
2.077657819809173E-1 -3.003859199143618E-3
2.0134668623257915E-1 -2.3109395147554394E-2
1.9315834837392915E-1 -4.199765795571221E-2
1.833713908174603E-1 -5.953276560864239E-2
1.7216465887930027E-1 -7.559946812603272E-2
1.5972297726244483E-1 -9.010333647636175E-2
1.0000000000000375 1.7608433115241974E-11
9.704769752320033E-1 -9.732630466376431E-2
9.323538722985147E-1 -1.8890721116031237E-1
8.864434039862132E-1 -2.740750158208718E-1
8.335993042314899E-1 -3.522608195164093E-1
7.747055164184522E-1 -4.2299560622343674E-1
7.106655870761794E-1 -4.859102407448642E-1
6.423923674927747E-1 -5.407344353040937E-1
5.707981168086531E-1 -5.872947445513662E-1
4.9678509043975994E-1 -6.255116557336483E-1
4.212366886404052E-1 -6.553958473432123E-1
3.450092298446939E-1 -6.770436963278181E-1
2.689244042336891E-1 -6.906321152741397E-1
1.937624524212399E-1 -6.9641280665455E-1
1.2025610516288653E-1 -6.947060213192644E-1
4.908530960207545E-2 -6.858939107381645E-1
-1.9127241088340248E-2 -6.704135605073624E-1
-8.381976828580798E-2 -6.487497941380835E-1
-1.4449425868187332E-1 -6.214278318656332E-1
-2.0071851661394263E-1 -5.890058880046082E-1
-2.521274347982606E-1 -5.520677872832309E-1
-2.9842350814873636E-1 -5.112156737935288E-1
-3.3937662280790515E-1 -4.6706288592698203E-1
-3.7482315735712096E-1 -4.2022706159782897E-1
-4.046644393823376E-1 -3.7132353459781864E-1
-4.288646043465799E-1 -3.2095907607805874E-1
-4.4744790832150766E-1 -2.697260292406174E-1
-4.604955503706465E-1 -2.1819688018078368E-1
-4.6814205737586684E-1 -1.669192967042018E-1
-4.705712949501599E-1 -1.1641166731687187E-1
-4.680121612565117E-1 -6.71591604126875E-2
-4.607340241353622E-1 -1.961031942629555E-2
-4.4904196148040504E-1 2.58257968118019E-2
-4.332718644201782E-1 6.878192523684397E-2
-4.1378545923717097E-1 1.0893436460624836E-1
-3.9096530513740024E-1 1.460042037158643E-1
-3.6520982014083553E-1 1.797580261335845E-1
-3.3692838497295646E-1 2.1000810901449007E-1
-3.0653657249855876E-1 2.3661213977639117E-1
-2.7445154560271773E-1 2.594724751993235E-1
-2.4108766306805007E-1 2.785349747424664E-1
-2.0685232878525758E-1 2.9378743981898436E-1
-1.7214211559632964E-1 3.0525769487451987E-1
-1.3733919022341548E-1 3.1301134762049165E-1
-1.0280806167376648E-1 3.171492671335705E-1
-6.88926714377482E-2 3.1780481981539105E-1
-3.5913838213903614E-2 3.1514090368992165E-1
-4.167066777998425E-3 3.0934682164608485E-1
2.6079274308365312E-2 3.0063503379539036E-1
5.458540517397092E-2 2.892378285627962E-1
8.114122075876218E-2 2.7540395083617625E-1
1.0556701628859678E-1 2.593952248298278E-1
1.2771386316625274E-1 2.4148320558231226E-1
1.474636486831736E-1 2.2194589406877532E-1
1.6472879433862556E-1 2.0106454534391055E-1
1.7945167255754652E-1 1.791205992312579E-1
1.916037421114833E-1 1.5639275892125518E-1
2.0118442533435646E-1 1.3315424060974174E-1
2.0821975076297605E-1 1.0967021424284035E-1
2.1276078744762128E-1 8.619545259143216E-2
2.148818964510511E-1 6.297220236896493E-2
2.1467882847911943E-1 4.022828990895735E-2
2.1226669187539257E-1 1.8175467154541138E-2
2.0777782101763365E-1 -2.991994602948396E-3
2.013595712398648E-1 -2.3098461858262302E-2
1.9317206648669702E-1 -4.198784722410455E-2
1.8338592569138815E-1 -5.952427175808228E-2
1.7217999253726918E-1 -7.559248663584013E-2
1.0000000000000375 1.7608433115241974E-11
9.704782581157569E-1 -9.732791914057304E-2
9.323557981928612E-1 -1.8891030774091683E-1
8.864454435140658E-1 -2.7407939680800975E-1
8.336010349747529E-1 -3.522662390347498E-1
7.747066156665388E-1 -4.230017873668135E-1
7.106658226909588E-1 -4.8591689123285303E-1
6.42391587974222E-1 -5.407412611683847E-1
5.707962410057243E-1 -5.873014615157643E-1
4.9678209737259327E-1 -6.255179985426433E-1
4.2123260758897346E-1 -6.554015768300029E-1
3.450041309294361E-1 -6.7704860480141E-1
2.689183894020817E-1 -6.906360301013658E-1
1.937556472181909E-1 -6.964155922819649E-1
1.2024865106335375E-1 -6.947075797854693E-1
4.9077357281220785E-2 -6.858941814066242E-1
-1.9135538102955103E-2 -6.704125183719477E-1
-8.382825856682223E-2 -6.487474474312295E-1
-1.4450279752307238E-1 -6.21424218976634E-1
-2.0072696974856455E-1 -5.890010740180224E-1
-2.521356811337665E-1 -5.52061859582828E-1
-2.984314420120256E-1 -5.112087380606873E-1
-3.39384155305067E-1 -4.6705506162580396E-1
-3.748302171937199E-1 -4.202184775570711E-1
-4.0467097293531173E-1 -3.713143245977118E-1
-4.2887057498072995E-1 -3.2094937446220306E-1
-4.4745329681378787E-1 -2.6971596798156167E-1
-4.6050035229362357E-1 -2.181865843705083E-1
-4.6814628192765195E-1 -1.6690888154285005E-1
-4.7057496358413364E-1 -1.1640123609002381E-1
-4.6801530516244794E-1 -6.714880153611197E-2
-4.6073668225867725E-1 -1.9600105297556344E-2
-4.4904417838476235E-1 2.583581107389998E-2
-4.3327368795289767E-1 6.879170265071546E-2
-4.1378693840564107E-1 1.0894388606053476E-1
-3.9096648813996476E-1 1.4601346783005192E-1
-3.65210752265921E-1 1.797670480702671E-1
-3.369291070441062E-1 2.1001691960966093E-1
-3.065371191955162E-1 2.3662078352062027E-1
-2.7445194427657826E-1 2.5948100839551325E-1
-2.410879325711377E-1 2.7854346315966017E-1
-2.068524789062887E-1 2.937959561574647E-1
-1.7214214651271362E-1 3.052663161259894E-1
-1.373390922958651E-1 3.1302015224899454E-1
-1.028078156624459E-1 3.1715833233615076E-1
-6.88922488846495E-2 3.1781421868128584E-1
-3.591320208027277E-2 3.151507025601041E-1
-4.166172336971362E-3 3.0935707756123765E-1
2.6080478225029236E-2 3.006457921754917E-1
5.458697537673189E-2 2.892491209692027E-1
8.11432178149517E-2 2.7541579359529894E-1
1.055695028255056E-1 2.594076168929488E-1
1.27716903065213E-1 2.4149612809206306E-1
1.4746730498046834E-1 2.2195930922222437E-1
1.6473312773273613E-1 2.0107839606557476E-1
1.7945674011488877E-1 1.7913480933123332E-1
1.9160959592022897E-1 1.5640723340606333E-1
2.0119111125805245E-1 1.3316886648227877E-1
2.0822730757496594E-1 1.0968486158084198E-1
2.127692459603377E-1 8.620997588028464E-2
2.1489127942402667E-1 6.298644236459168E-2
2.146891502363195E-1 4.024207533784724E-2
2.1227795844391414E-1 1.8188616721444003E-2
2.0779003080739125E-1 -2.9796700501794303E-3
2.0137271586007566E-1 -2.308715719186743E-2
1.9318613191917672E-1 -4.197776079061639E-2
1.8340089365839687E-1 -5.951560297910695E-2
1.0000000000000375 1.7608433115241974E-11
9.704792419589072E-1 -9.732946827713793E-2
9.323572146005636E-1 -1.8891323626795706E-1
8.864468376988264E-1 -2.740834847783614E-1
8.336020460556871E-1 -3.522712309176998E-1
7.747069707553765E-1 -4.230074065509324E-1
7.106653291743853E-1 -4.8592285329900714E-1
6.423901248189926E-1 -5.407472855016804E-1
5.707937495725847E-1 -5.87307281223632E-1
4.9677857230648625E-1 -6.255233680055301E-1
4.2122808777101484E-1 -6.554062782022553E-1
3.449986907900507E-1 -6.770524519940636E-1
2.6891213079354725E-1 -6.906388719153822E-1
1.937486918095076E-1 -6.964173135227918E-1
1.2024113330605811E-1 -6.947081018315996E-1
4.906941823783478E-2 -6.858934608984715E-1
-1.914375628049541E-2 -6.704105456202608E-1
-8.38366173666167E-2 -6.487442437691852E-1
-1.4451116609562634E-1 -6.214198334847697E-1
-2.0073522802012775E-1 -5.889955798493992E-1
-2.5214372239040583E-1 -5.520553499467197E-1
-2.9843917464850767E-1 -5.112013219337994E-1
-3.3939150386275346E-1 -4.670468593868555E-1
-3.748371229171963E-1 -4.2020961668262463E-1
-4.046773933170015E-1 -3.7130493512520535E-1
-4.288764844971917E-1 -3.209395860433871E-1
-4.474586846189962E-1 -2.697059052206567E-1
-4.605052213034481E-1 -2.1817636370455662E-1
-4.681506474810672E-1 -1.6689860873069826E-1
-4.705788512133213E-1 -1.1639100319083229E-1
-4.680187488572467E-1 -6.713868561172612E-2
-4.6073972225125687E-1 -1.959016659102197E-2
-4.490468590683437E-1 2.5845529982742862E-2
-4.332760555651695E-1 6.880117707961148E-2
-4.1378903915050347E-1 1.0895310922820639E-1
-3.909683661482575E-1 1.4602245008339337E-1
-3.652124477455365E-1 1.7977581595026682E-1
-3.369306546688578E-1 2.1002551429576696E-1
-3.0653854672665376E-1 2.366292590300683E-1
-2.744532713734133E-1 2.594894293968537E-1
-2.4108916993834842E-1 2.785519025345396E-1
-2.0685362757864897E-1 2.938044924111949E-1
-1.721431975840019E-1 3.0527503061426947E-1
-1.3734002686799204E-1 3.130291263928344E-1
-1.0280860517147455E-1 3.171676446867022E-1
-6.889285550646439E-2 3.1782394222304083E-1
-3.5913579597329805E-2 3.1516090200292546E-1
-4.166267239147896E-3 3.093678068710267E-1
2.608072614023533E-2 3.0065709217437947E-1
5.458763096018536E-2 2.892610176986779E-1
8.114434890145651E-2 2.754282958719502E-1
1.055711796470504E-1 2.5942071589371535E-1
1.2771919586221792E-1 2.4150979574652454E-1
1.4747028254058786E-1 2.2197349772702057E-1
1.6473685601334337E-1 2.010930378423437E-1
1.7946128060129835E-1 1.791498170215309E-1
1.916150043564921E-1 1.5642250055584483E-1
2.0119743665079406E-1 1.3318426851404297E-1
2.082345908994277E-1 1.097002568370171E-1
2.127775198963719E-1 8.622520751696934E-2
2.1490056789950532E-1 6.300134012135222E-2
2.1469946799755263E-1 4.0256457369544904E-2
2.1228931152558014E-1 1.8202292006650175E-2
2.0780241700943133E-1 -2.9668993849890557E-3
2.0138612553537122E-1 -2.3075493358198973E-2
1.9320054896029687E-1 -4.196740760777781E-2
1.0000000000000375 1.7608433115241974E-11
9.704799674284553E-1 -9.733093470128984E-2
9.323581909486394E-1 -1.889159722489066E-1
8.864476753375823E-1 -2.7408725526951727E-1
8.336024382834131E-1 -3.5227577579596747E-1
7.747066887861804E-1 -4.2301245264845305E-1
7.106642153901596E-1 -4.8592812594226537E-1
6.423880850266694E-1 -5.407525185117364E-1
5.707907448463845E-1 -5.873122251966432E-1
4.9677461062640016E-1 -6.25527797069805E-1
4.212232157975645E-1 -6.554099951156527E-1
3.4499298598632683E-1 -6.770552917399536E-1
2.6890569391234503E-1 -6.90640703585687E-1
1.937416398778657E-1 -6.964180415194403E-1
1.2023359346819568E-1 -6.94707665447358E-1
4.9061521894678016E-2 -6.858918330193464E-1
-1.9151878345708494E-2 -6.704077307154636E-1
-8.38448391744501E-2 -6.487402750892289E-1
-1.4451937006894514E-1 -6.214147696797178E-1
-2.0074330775254037E-1 -5.889895012532684E-1
-2.5215158471227606E-1 -5.520483544704079E-1
-2.984467410631468E-1 -5.111935208830708E-1
-3.3939871139330224E-1 -4.6703837322084446E-1
-3.748439240178981E-1 -4.2020057041093917E-1
-4.046837567407328E-1 -3.7129545534763864E-1
-4.2888239347718915E-1 -3.2092979616195033E-1
-4.474641361752971E-1 -2.6969592224007655E-1
-4.605102248234922E-1 -2.18166295182506E-1
-4.6815522314697355E-1 -1.6688855012115159E-1
-4.705830280831562E-1 -1.1638103563434583E-1
-4.680225629239186E-1 -6.712887433748037E-2
-4.6074321430647075E-1 -1.9580559594306577E-2
-4.4905007263651614E-1 2.5854902506632506E-2
-4.3327903485775965E-1 6.881030287189047E-2
-4.137918271032603E-1 1.0896199365569953E-1
-3.909710023495708E-1 1.46031115152761E-1
-3.6521496706707246E-1 1.7978429920414724E-1
-3.369330854287783E-1 2.1003386715050654E-1
-3.06540909666651E-1 2.3663754467408601E-1
-2.7445557837215356E-1 2.5949772053326103E-1
-2.4109142333620706E-1 2.7856027882947443E-1
-2.0685581967934122E-1 2.9381303778664286E-1
-1.7214531044076478E-1 3.0528383042268276E-1
-1.3734203235197667E-1 3.130382645230182E-1
-1.0281046538299529E-1 3.171772006796553E-1
-6.889452339658785E-2 3.1783398849443145E-1
-3.591499993993477E-2 3.15171501270581E-1
-4.167377260149898E-3 3.093790094941824E-1
2.607999484682402E-2 3.006689342261823E-1
5.4587351049179084E-2 2.892735186611048E-1
8.114459642947186E-2 2.7544145767393213E-1
1.0557203166620008E-1 2.59434521105415E-1
1.2772072893601683E-1 2.4152420684998124E-1
1.4747257130303762E-1 2.2198845684178575E-1
1.647399713627679E-1 2.0110846651469605E-1
1.7946528832105096E-1 1.7916561667182673E-1
1.9161996384799942E-1 1.564385532309299E-1
2.0120339955068176E-1 1.3320043785338095E-1
2.0824160079443796E-1 1.0971639003668306E-1
2.1278561094750287E-1 8.624113644958639E-2
2.1490976468776204E-1 6.30168837113158E-2
2.1470978553121392E-1 4.0271423815561105E-2
2.1230075539879587E-1 1.8216481278967904E-2
2.0781498382205854E-1 -2.9536928814222416E-3
2.0139980358866533E-1 -2.306347782032898E-2
1.0000000000000375 1.7608433115241974E-11
9.704804698706595E-1 -9.733230567942387E-2
9.323587880571426E-1 -1.8891849811669664E-1
8.864480346442053E-1 -2.740906922632572E-1
8.336023008072888E-1 -3.522798629887807E-1
7.747058646356577E-1 -4.2301692302048466E-1
7.106625777573868E-1 -4.859327161833701E-1
6.423855632413686E-1 -5.407569776717613E-1
5.70787316954398E-1 -5.873163217321704E-1
4.9677029578486964E-1 -6.255313245663701E-1
4.212180668059878E-1 -6.554127765392126E-1
3.449870819940927E-1 -6.77057182148557E-1
2.6889913363853163E-1 -6.906415918293661E-1
1.9373453526141915E-1 -6.964178503999726E-1
1.2022606390191487E-1 -6.947063511751672E-1
4.9053689071727774E-2 -6.858893836477744E-1
-1.9159894791242176E-2 -6.704041637836077E-1
-8.385292546512403E-2 -6.487356346668954E-1
-1.4452742136057956E-1 -6.214091229235902E-1
-2.007512305509844E-1 -5.889829346127721E-1
-2.5215929855259017E-1 -5.52040969629826E-1
-2.984541797375827E-1 -5.111854306354408E-1
-3.3940582308748035E-1 -4.670296969830492E-1
-3.748506724567348E-1 -4.201914309048211E-1
-4.0469011975537683E-1 -3.712859741512842E-1
-4.288883625541368E-1 -3.2092009016392714E-1
-4.474697151798049E-1 -2.6968610039270596E-1
-4.6051542866423834E-1 -2.1815645567221267E-1
-4.6816007608279353E-1 -1.6687877792474584E-1
-4.7058756190730683E-1 -1.1637140065272265E-1
-4.680268148649225E-1 -6.711942980017989E-2
-4.60747225109673E-1 -1.9571341204429663E-2
-4.490538844861737E-1 2.5863876995190146E-2
-4.332826894326727E-1 6.88190335542307E-2
-4.137953635801942E-1 1.089704979196251E-1
-3.909744557468278E-1 1.4603942657273905E-1
-3.652183665046687E-1 1.7979246614401226E-1
-3.369364528807484E-1 2.1004195095977563E-1
-3.0654425858246254E-1 2.3664561743903623E-1
-2.744589127865446E-1 2.595058626722504E-1
-2.4109473721271166E-1 2.7856857645506744E-1
-2.0685909662591517E-1 2.9382157985980495E-1
-1.7214852343013937E-1 3.052927059095994E-1
-1.3734514411988089E-1 3.1304755938143686E-1
-1.0281342873345525E-1 3.171869950163196E-1
-6.889728221339926E-2 3.178443538326343E-1
-3.5917489609988924E-2 3.1518249775716695E-1
-4.169526422784138E-3 3.0939068371481954E-1
2.6078262993267008E-2 3.006813168960497E-1
5.45861175197866E-2 2.892866229559063E-1
8.11439445177548E-2 2.754552776142011E-1
1.055720453466996E-1 2.5944903048899565E-1
1.277214911539079E-1 2.4153935859842499E-1
1.474741622422036E-1 2.2200418265154526E-1
1.6474246685379204E-1 2.0112467702845516E-1
1.7946875839805768E-1 1.7918220200267673E-1
1.9162447120754814E-1 1.5645538382706387E-1
2.012089990561604E-1 1.332173662019551E-1
2.082483376772798E-1 1.0973325171559545E-1
2.1279352056964354E-1 8.6257752454048E-2
2.1491887227903383E-1 6.303306272733504E-2
2.1472010593658247E-1 4.0286964707573716E-2
2.1231229324898152E-1 1.8231175875099138E-2
2.0782773379161346E-1 -2.9400567935449554E-3
1.0000000000000375 1.7608433115241974E-11
9.704807801815385E-1 -9.733357219970824E-2
9.323590593358329E-1 -1.8892080267464983E-1
8.864479845954127E-1 -2.740937866753573E-1
8.336017124249311E-1 -3.5228348908567164E-1
7.747045822108382E-1 -4.230208221470948E-1
7.106605014433858E-1 -4.859366377817101E-1
6.423826427356242E-1 -5.407606866603623E-1
5.707835447395747E-1 -5.873196046140112E-1
4.967657002062816E-1 -6.255339942254514E-1
4.2121270512418385E-1 -6.554146755741154E-1
3.4498103402104985E-1 -6.770581852791773E-1
2.688924951646861E-1 -6.906416064629032E-1
1.9372741255739417E-1 -6.964168169028722E-1
1.2021856838443501E-1 -6.947042417318143E-1
4.9045932779364E-2 -6.858862003806158E-1
-1.9167803153710233E-2 -6.703999362502445E-1
-8.386088390346327E-2 -6.48730416715871E-1
-1.4453533718294867E-1 -6.214029892550001E-1
-2.007590224139947E-1 -5.889759767487863E-1
-2.521668979203196E-1 -5.520332922509221E-1
-2.9846153143302534E-1 -5.111771468680282E-1
-3.3941288651529805E-1 -4.67020925082935E-1
-3.748574205974474E-1 -4.201822900291221E-1
-4.0469653897473645E-1 -3.712765804220666E-1
-4.2889445154156813E-1 -3.20910553398724E-1
-4.4747548384230496E-1 -2.696765210840346E-1
-4.605208965339039E-1 -2.1814692219548293E-1
-4.681652707983975E-1 -1.668693646059076E-1
-4.7059251712684197E-1 -1.1636216576273013E-1
-4.680315685264436E-1 -6.71104145087357E-2
-4.607518173760993E-1 -1.956256883561041E-2
-4.4905835579382297E-1 2.587240113348172E-2
-4.3328707852338705E-1 6.882732196991913E-2
-4.1379970571019115E-1 1.0897857985399906E-1
-3.90978780855645E-1 1.4604734684951812E-1
-3.6522269805108E-1 1.7980028395002573E-1
-3.369408062542548E-1 2.1004973727840304E-1
-3.065486398860351E-1 2.3665345297679474E-1
-2.7446331814672364E-1 2.595138352693116E-1
-2.4109915232851056E-1 2.785767783149864E-1
-2.0686349628839212E-1 2.9383010467260934E-1
-1.7215287169878063E-1 3.053016458374762E-1
-1.3734939452635891E-1 3.1305700209932913E-1
-1.0281752494793087E-1 3.1719702082672363E-1
-6.890115876168576E-2 3.1785503286176436E-1
-3.5921073010405556E-2 3.1519388736694237E-1
-4.17273661171265E-3 3.0940282621031434E-1
2.607551133320551E-2 3.006942374156371E-1
5.458391329015739E-2 2.893003277702158E-1
8.11423784529845E-2 2.7546975272848784E-1
1.0557120829031034E-1 2.594642407112055E-1
1.2772147227591601E-1 2.4155524698763953E-1
1.4747504722782692E-1 2.2202067037723222E-1
1.6474433645865394E-1 2.0114166372354872E-1
1.7947168654179801E-1 1.791995663381486E-1
1.916285243986817E-1 1.564729851059647E-1
2.0121423417470896E-1 1.332350452013173E-1
2.0825480174474695E-1 1.0975083298217957E-1
2.1280125011212633E-1 8.62750465610349E-2
2.1492789271335228E-1 6.304986864272692E-2
2.1473043143853773E-1 4.030307264717376E-2
2.123239268927491E-1 1.8246370473315014E-2
1.0000000000000375 1.7608433115241974E-11
9.704809254694924E-1 -9.733472835831758E-2
9.323590518272546E-1 -1.889228792540752E-1
8.864475860551482E-1 -2.7409653510407783E-1
8.336007426902763E-1 -3.522866567042655E-1
7.747029154832281E-1 -4.230241605246912E-1
7.106580613032861E-1 -4.8593991021053023E-1
6.423793963378368E-1 -5.407636744735569E-1
5.707794966550424E-1 -5.873221124786622E-1
4.967608860526958E-1 -6.255358540741576E-1
4.2120718537280233E-1 -6.554157493195175E-1
3.4497488772612017E-1 -6.770583661655546E-1
2.688858146360948E-1 -6.906408199751602E-1
1.937202979151888E-1 -6.96415020029001E-1
1.2021112295970422E-1 -6.947014216083199E-1
4.9038259022997355E-2 -6.858823722132329E-1
-1.9175607181978714E-2 -6.703951405915253E-1
-8.386872746555261E-2 -6.48724716154665E-1
-1.4454313914343314E-1 -6.213964650170068E-1
-2.0076671288617495E-1 -5.889687249065204E-1
-2.5217441924022505E-1 -5.520254191055244E-1
-2.9846883931131984E-1 -5.111687656924851E-1
-3.394199497550859E-1 -4.67012151900645E-1
-3.748642208719354E-1 -4.2017323966319214E-1
-4.047030701586633E-1 -3.712673630298931E-1
-4.2890071874212654E-1 -3.209012712608114E-1
-4.474815020317746E-1 -2.6966726564784316E-1
-4.605266893070225E-1 -2.1813777198066817E-1
-4.681708682847502E-1 -1.6686038275546677E-1
-4.7059795439383234E-1 -1.1635339883009488E-1
-4.680368836326379E-1 -6.710189142540733E-2
-4.607570494673729E-1 -1.9554300475878812E-2
-4.4906354314881675E-1 2.5880422063855327E-2
-4.332922567532834E-1 6.883512002913114E-2
-4.138049055841425E-1 1.0898619597981625E-1
-3.909840275323262E-1 1.460548376371739E-1
-3.6522800912670766E-1 1.7980771870185303E-1
-3.369461903985615E-1 2.10057196476457E-1
-3.0655409572838027E-1 2.3666102566985575E-1
-2.744688340568221E-1 2.5952161643668076E-1
-2.4110470566560416E-1 2.785848659448604E-1
-2.0686905311429826E-1 2.938385968242441E-1
-1.721583871425351E-1 3.0531063753306775E-1
-1.3735481298252444E-1 3.130665823461911E-1
-1.0282278095984791E-1 3.172072697265901E-1
-6.890617757791279E-2 3.1786601880530124E-1
-3.592577233613268E-2 3.152056645541647E-1
-4.177027629943917E-3 3.0941543232292307E-1
2.60717223015313E-2 3.007076916507522E-1
5.45807230100962E-2 2.893146291903538E-1
8.113988506774134E-2 2.7548487906225827E-1
1.0556950944294378E-1 2.594801475268554E-1
1.2772066322448733E-1 2.415718672937453E-1
1.4747521922225598E-1 2.2203791470402778E-1
1.6474557472837778E-1 2.011594204637162E-1
1.7947406947828884E-1 1.792177031994765E-1
1.9163212111232686E-1 1.564913496575664E-1
2.0121910406916477E-1 1.3325346715930644E-1
2.0826099343850013E-1 1.0976912620662797E-1
2.1280880075627917E-1 8.629301152373181E-2
2.1493682748571102E-1 6.306729520004982E-2
2.1474076339754955E-1 4.031974320698958E-2
1.0000000000000375 1.7608433115241974E-11
9.704809295768716E-1 -9.733577066435822E-2
9.323588069753174E-1 -1.8892472516931424E-1
8.864468926661799E-1 -2.740989389186473E-1
8.335994528412389E-1 -3.5228937354765677E-1
7.747009294035282E-1 -4.2302695372374993E-1
7.1065532273971E-1 -4.8594255776910894E-1
6.423758872620072E-1 -5.407659746488136E-1
5.707752315489065E-1 -5.873238880849293E-1
4.9675590610392845E-1 -6.255369557512883E-1
4.212015527224313E-1 -6.554160576341054E-1
3.4496868004810244E-1 -6.770577926257628E-1
2.6887911993596586E-1 -6.906393071548601E-1
1.9371320987669255E-1 -6.964125406126772E-1
1.2020373673090881E-1 -6.946979767732095E-1
4.903066760951572E-2 -6.858779892869521E-1
-1.918331604163023E-2 -6.703898701392379E-1
-8.387647378933896E-2 -6.487186287655329E-1
-1.445508526127852E-1 -6.213896474604776E-1
-2.0077433418297375E-1 -5.88961276481554E-1
-2.521819012323181E-1 -5.52017447513548E-1
-2.984761471317638E-1 -5.111603833084892E-1
-3.3942706092149816E-1 -4.670034717022314E-1
-3.748711248296601E-1 -4.201643716500065E-1
-4.047097674910506E-1 -3.7125841085608025E-1
-4.2890722005068704E-1 -3.2089232910092264E-1
-4.474878268842167E-1 -2.696584158300467E-1
-4.605328643140372E-1 -2.1812908237134818E-1
-4.681769256293797E-1 -1.668519052512989E-1
-4.706039299667976E-1 -1.1634516803085589E-1
-4.680428152507027E-1 -6.709392394566309E-2
-4.60762974859274E-1 -1.9546594504528985E-2
-4.490694981150375E-1 2.5887886040167785E-2
-4.332982734268695E-1 6.884237875007983E-2
-4.138110107973933E-1 1.0899330274963762E-1
-3.909902412472529E-1 1.4606185955763892E-1
-3.6523434299150503E-1 1.7981473548776608E-1
-3.3695264557383664E-1 2.1006429773675475E-1
-3.06560664203906E-1 2.3666830871504255E-1
-2.7447549621461226E-1 2.5952918304915373E-1
-2.4111143043543085E-1 2.785928196258024E-1
-2.0687579812231385E-1 2.938470396435023E-1
-1.721650985260679E-1 3.0531966702220614E-1
-1.373614260606889E-1 3.130762884870975E-1
-1.0282922093479141E-1 3.1721773205378795E-1
-6.891236085819556E-2 3.1787730364212324E-1
-3.593160760068492E-2 3.152178225552381E-1
-4.18241740553128E-3 3.0942849624260493E-1
2.6066880037393072E-2 3.007216743889994E-1
5.4576532872120935E-2 2.893295223325339E-1
8.113645256015663E-2 2.7550065181260086E-1
1.0556693890473917E-1 2.5949674598599837E-1
1.2771905608933523E-1 2.4158921429598754E-1
1.474746719212398E-1 2.220559098810906E-1
1.6474617752758827E-1 2.0117794144746654E-1
1.7947590402606214E-1 1.7923660600313543E-1
1.916352597244515E-1 1.565104708022331E-1
2.0122360828148556E-1 1.3327262544579466E-1
2.0826691309585302E-1 1.0978812511976822E-1
2.1281617330541044E-1 8.631164197366997E-2
2.1494567747811552E-1 6.308533862593672E-2
1.0000000000000375 1.7608433115241974E-11
9.704808134902202E-1 -9.733669765548124E-2
9.323583612660497E-1 -1.8892634103244868E-1
8.864459516055585E-1 -2.741010034546765E-1
8.335978965964934E-1 -3.5229165160146486E-1
7.746986807018785E-1 -4.230292216031409E-1
7.106523425621306E-1 -4.859446089784412E-1
6.423721699045851E-1 -5.407676245497999E-1
5.707707994459026E-1 -5.873249776167909E-1
4.9675080438572256E-1 -6.25537353977455E-1
4.211958441310024E-1 -6.554156633241389E-1
3.44962439944569E-1 -6.770565347646793E-1
2.688724315277622E-1 -6.906371446552554E-1
1.937061601489956E-1 -6.964094610229951E-1
1.2019641267481466E-1 -6.94693994405108E-1
4.9023152995261214E-2 -6.858731426651038E-1
-1.9190943353178325E-2 -6.703842189979012E-1
-8.38841439943272E-2 -6.487122506010617E-1
-1.4455850555631014E-1 -6.213826339427306E-1
-2.0078192062018163E-1 -5.889537291970769E-1
-2.5218938322443063E-1 -5.520094747884811E-1
-2.984834986108937E-1 -5.111520957723295E-1
-3.3943426726449594E-1 -4.669949787201267E-1
-3.748781823907994E-1 -4.201557778164066E-1
-4.047166826880678E-1 -3.712498126880631E-1
-4.2891400850758016E-1 -3.208838124906135E-1
-4.4749451170270577E-1 -2.696500531922E-1
-4.6053947472944373E-1 -2.1812093084649725E-1
-4.681834953256164E-1 -1.6684400518144618E-1
-4.70610495303924E-1 -1.1633754191166228E-1
-4.6804941333784594E-1 -6.708657574013101E-2
-4.607696417119606E-1 -1.9539510069471775E-2
-4.4907626708491927E-1 2.589473882281292E-2
-4.3330517302893656E-1 6.884904911262286E-2
-4.138180636126644E-1 1.0899985513772323E-1
-3.9099746187468876E-1 1.46068372232294E-1
-3.652417364124101E-1 1.7982129816747933E-1
-3.369602075942433E-1 2.1007100935634399E-1
-3.0656837891444894E-1 2.3667527437848412E-1
-2.7448333632044664E-1 2.595365111215359E-1
-2.4111935657955652E-1 2.7860061877743775E-1
-2.0688375903670622E-1 2.938554155473894E-1
-1.7217303150141297E-1 3.053287193292762E-1
-1.3736925730140775E-1 3.130861078720597E-1
-1.0283686665832505E-1 3.1722839712591333E-1
-6.891972836878525E-2 3.1788887838277824E-1
-3.5938596651711896E-2 3.1523035371823493E-1
-4.188921899434234E-3 3.0944201124287996E-1
2.6060970327524444E-2 3.007361795569777E-1
5.457133055130055E-2 2.893450015881546E-1
8.113207039044504E-2 2.755170655608297E-1
1.0556348797891842E-1 2.5951403069488377E-1
1.277166437790755E-1 2.4160728237775478E-1
1.4747340026981182E-1 2.2207465046894334E-1
1.6474614083190303E-1 2.0119722066760826E-1
1.7947718776566968E-1 1.79256268826302E-1
1.9163793899481754E-1 1.565303427231103E-1
2.0122774647541808E-1 1.3329251463939362E-1
2.082725609761834E-1 1.0980782511520226E-1
2.1282336822874287E-1 8.633093468960651E-2
1.0000000000000375 1.7608433115241974E-11
9.704805956712683E-1 -9.733750956729773E-2
9.323577467642963E-1 -1.8892773015255102E-1
8.864448042225235E-1 -2.741027374178691E-1
8.33596120854555E-1 -3.522935064656632E-1
7.746962186292903E-1 -4.230309876913567E-1
7.106491696485102E-1 -4.859460957910848E-1
6.423682905926937E-1 -5.407686648043811E-1
5.707662422249437E-1 -5.87325430218378E-1
4.967456170324152E-1 -6.255371061387879E-1
4.2119008895249005E-1 -6.554146313748883E-1
3.4495618916591764E-1 -6.77054664587168E-1
2.688657632185575E-1 -6.90634410693666E-1
1.936991544484855E-1 -6.964058648754743E-1
1.2018914848682864E-1 -6.9468956265227E-1
4.901570517376662E-2 -6.858679241540031E-1
-1.919850636340785E-2 -6.703782817222366E-1
-8.389176198861856E-2 -6.487056781202787E-1
-1.4456612797850862E-1 -6.213755216618944E-1
-2.007895071017509E-1 -5.889461808694175E-1
-2.5219690460643457E-1 -5.520015981544614E-1
-2.984909366164472E-1 -5.111439991077366E-1
-3.394416143377619E-1 -4.6698676714687704E-1
-3.7488544095387677E-1 -4.201475498525023E-1
-4.0472386449919945E-1 -3.7124165748247384E-1
-4.289211331755774E-1 -3.2087580682672445E-1
-4.4750160548751877E-1 -2.6964225940169095E-1
-4.605465689823249E-1 -2.1811339502555094E-1
-4.6819062481650614E-1 -1.668367558586414E-1
-4.706176964456495E-1 -1.1633058914210835E-1
-4.6805672225777695E-1 -6.707991108700648E-2
-4.6077709285472507E-1 -1.95331066236924E-2
-4.490838909220178E-1 2.5900925781073406E-2
-4.333129946600089E-1 6.885508078415599E-2
-4.138261010318954E-1 1.0900580763399911E-1
-3.9100572427139724E-1 1.460743346624773E-1
-3.652502233289586E-1 1.798273702608364E-1
-3.369689078018179E-1 2.1007729878683862E-1
-3.065772693887387E-1 2.3668189375003268E-1
-2.744923819369751E-1 2.595435752016178E-1
-2.4112850987675832E-1 2.786082410394231E-1
-2.0689296013888014E-1 2.938637052259778E-1
-1.721822087075223E-1 3.0533777800154016E-1
-1.3737832790175375E-1 3.130960264583098E-1
-1.0284573770353216E-1 3.172392530715018E-1
-6.89282980279799E-2 3.179007328374763E-1
-3.5946755763373923E-2 3.1524324925828545E-1
-4.196555640224234E-3 3.0945596972523154E-1
2.6053980522352044E-2 3.007512005164499E-1
5.456510506673807E-2 2.893610608172357E-1
8.112672937490231E-2 2.755341145561646E-1
1.0555914907858488E-1 2.595319960251292E-1
1.2771342048336645E-1 2.4162606621321495E-1
1.4747139955369654E-1 2.2209413081066595E-1
1.64745461458733E-1 2.0121725269300522E-1
1.7947791876633726E-1 1.7927668648684023E-1
1.9164015797618733E-1 1.5655096067269125E-1
2.0123151840219136E-1 1.333131307543939E-1
2.082779371477404E-1 1.0982822341302324E-1
1.0000000000000375 1.7608433115241974E-11
9.70480292347249E-1 -9.733820787696901E-2
9.323569915544864E-1 -1.8892889816798478E-1
8.864434866014907E-1 -2.7410415227922746E-1
8.335941663079742E-1 -3.522949567739144E-1
7.746935855781244E-1 -4.230322785704988E-1
7.106458456763115E-1 -4.8594705315399706E-1
6.423642882165389E-1 -5.407691387771179E-1
5.707615944684575E-1 -5.873252975566385E-1
4.967403730234072E-1 -6.255362717149223E-1
4.2118430958914843E-1 -6.554130287002397E-1
3.449499430480784E-1 -6.770522556520512E-1
2.688591229747568E-1 -6.906311847566238E-1
1.9369219330781046E-1 -6.964018367962659E-1
1.2018193744783756E-1 -6.946847704231447E-1
4.900831053667193E-2 -6.858624261041709E-1
-1.920602504623071E-2 -6.703721532735988E-1
-8.3899353622003E-2 -6.486990079479971E-1
-1.4457375052128466E-1 -6.21368408495393E-1
-2.0079712871568917E-1 -5.88938729218867E-1
-2.5220450383791704E-1 -5.519939147822814E-1
-2.98498502273888E-1 -5.111361892510736E-1
-3.394491451183022E-1 -4.669789310221408E-1
-3.748929447975835E-1 -4.201397795127453E-1
-4.0473135756530954E-1 -3.7123403393502347E-1
-4.2892863866895714E-1 -3.2086839749843155E-1
-4.4750915230661964E-1 -2.696351161628249E-1
-4.605541901715698E-1 -2.1810655259101253E-1
-4.681983559218977E-1 -1.66830230617213E-1
-4.7062557357792106E-1 -1.1632437879348544E-1
-4.680647807723456E-1 -6.70739944307775E-2
-4.6078536519569047E-1 -1.9527443937017323E-2
-4.490924048701656E-1 2.5906391667799827E-2
-4.333217716592112E-1 6.886042320466358E-2
-4.138351545839156E-1 1.0901111422733388E-1
-3.9101505856566804E-1 1.4607970529131134E-1
-3.6525983206061263E-1 1.7983291437559057E-1
-3.3697877311358715E-1 2.1008313266910428E-1
-3.0658736113304963E-1 2.366881374860738E-1
-2.745026572491929E-1 2.59550349571817E-1
-2.4113891300287482E-1 2.786156642573426E-1
-2.069034227138502E-1 2.938718894818523E-1
-1.7219265018908841E-1 3.053468264501508E-1
-1.3738865642926953E-1 3.1310603006088694E-1
-1.028558511814125E-1 3.172502876874766E-1
-6.89380854962468E-2 3.179128565883595E-1
-3.595609907729106E-2 3.152565001971324E-1
-4.205331280041039E-3 3.0947036382325016E-1
2.6045899459257418E-2 3.00766730150835E-1
5.455784681481676E-2 2.8937769364383115E-1
8.112042131301807E-2 2.755517927895863E-1
1.0555391572315033E-1 2.595506365056946E-1
1.2770938103126173E-1 2.4164556042546065E-1
1.4746866600536535E-1 2.221143458856009E-1
1.647441369426687E-1 2.0123803285722666E-1
1.794780955375512E-1 1.7929785474761323E-1
1.916419160014573E-1 1.5657232117875525E-1
2.012349238071731E-1 1.3333447137350019E-1
1.0000000000000375 1.7608433115241974E-11
9.70479917713667E-1 -9.73387954477408E-2
9.323561201308179E-1 -1.8892985269651963E-1
8.864420300412497E-1 -2.7410526194884616E-1
8.33592068001859E-1 -3.522960237280872E-1
7.746908177198462E-1 -4.2303312336352394E-1
7.106424057239366E-1 -4.859475184434228E-1
6.423601949701346E-1 -5.407690921161269E-1
5.707568840360354E-1 -5.873246333283041E-1
4.9673509482514594E-1 -6.255349120170146E-1
4.2117852239497816E-1 -6.554109236770187E-1
3.449437113647527E-1 -6.770493827567111E-1
2.6885251374788033E-1 -6.906275473636448E-1
1.9368527294137985E-1 -6.963974621972989E-1
1.2017476928816535E-1 -6.94679707204259E-1
4.900095280587429E-2 -6.858567412545781E-1
-1.9213521523102156E-2 -6.703659284030464E-1
-8.390694560363081E-2 -6.48692336893051E-1
-1.4458140402825395E-1 -6.213613919252163E-1
-2.0080481958922608E-1 -5.889314719237317E-1
-2.522122176178335E-1 -5.519865217266721E-1
-2.985062341046124E-1 -5.111287619842916E-1
-3.3945689928498746E-1 -4.669715642513292E-1
-3.749007340313372E-1 -4.201325582702539E-1
-4.0473920192053575E-1 -3.712270306392659E-1
-4.289365644598558E-1 -3.2086166981159725E-1
-4.47517190659056E-1 -2.6962870509400805E-1
-4.6056237554912444E-1 -2.1810048115047204E-1
-4.682067243897428E-1 -1.668245030229088E-1
-4.7063416090828686E-1 -1.1631898004179733E-1
-4.6807362142130127E-1 -6.706889034685544E-2
-4.6079448968519754E-1 -1.9522582099336123E-2
-4.4910183821321764E-1 2.591108096965279E-2
-4.3333153172160505E-1 6.886502546848544E-2
-4.138452506368368E-1 1.0901572850723984E-1
-3.9102548981177543E-1 1.46084441992725E-1
-3.652705863703409E-1 1.7983789259901187E-1
-3.3698982613084894E-1 2.1008847717983498E-1
-3.065986756994261E-1 2.3669397550849403E-1
-2.745141827487911E-1 2.595568078283054E-1
-2.41150585447079E-1 2.786228652498576E-1
-2.069151652035954E-1 2.938799482041208E-1
-1.7220437326616445E-1 3.053558473232827E-1
-1.3740025908802037E-1 3.1311610375661414E-1
-1.0286722213818063E-1 3.1726148818043687E-1
-6.894910458021182E-2 3.179252386643264E-1
-3.596663916558006E-2 3.1527009705090214E-1
-4.215260087779586E-3 3.0948518531694247E-1
2.603671729885139E-2 3.007827612961544E-1
5.454954744799854E-2 2.893948936525572E-1
8.111313942208812E-2 2.7557009459140797E-1
1.0554778228513076E-1 2.595699467711345E-1
1.2770452108592437E-1 2.4166576008789625E-1
1.47465196648897E-1 2.221352912876542E-1
1.647421652887145E-1 2.0125955726245687E-1
1.7947771690072498E-1 1.7931977042779532E-1
1.9164321235139914E-1 1.565944219837505E-1
1.0000000000000375 1.7608433115241974E-11
9.704794841478266E-1 -9.733927606218436E-2
9.323551537431835E-1 -1.8893060293178882E-1
8.864404615034557E-1 -2.7410608227303007E-1
8.335898558465634E-1 -3.52296730659464E-1
7.746879455528919E-1 -4.230335533861898E-1
7.106388789097627E-1 -4.859475311419023E-1
6.423560369855099E-1 -5.407685723928088E-1
5.707521328375422E-1 -5.873234928851768E-1
4.96729799198427E-1 -6.255330898614602E-1
4.211727383596161E-1 -6.554083859734193E-1
3.449374990247052E-1 -6.770461217479425E-1
2.688459343111862E-1 -6.906235798140196E-1
1.9367838606261112E-1 -6.963928271407167E-1
1.2016763107587614E-1 -6.94674462812271E-1
4.899361358338827E-2 -6.858509624156074E-1
-1.922101822774532E-2 -6.703597030610015E-1
-8.391456447652415E-2 -6.486857617335742E-1
-1.4458911834057883E-1 -6.213545694790783E-1
-2.0081261202622236E-1 -5.889245065152491E-1
-2.522200799993626E-1 -5.519795158253614E-1
-2.9851416721004465E-1 -5.111218127632577E-1
-3.394649123749285E-1 -4.6696476046779745E-1
-3.749088439586475E-1 -4.2012597730277945E-1
-4.0474743227012744E-1 -3.712207359288413E-1
-4.289449442473384E-1 -3.20855708820684E-1
-4.475257529649068E-1 -2.696231076566061E-1
-4.605711560360874E-1 -2.1809525835305207E-1
-4.682157592004339E-1 -1.6681964665453639E-1
-4.706434862170229E-1 -1.1631446188241684E-1
-4.680832705502899E-1 -6.706466355040078E-2
-4.608044910593616E-1 -1.9518581300242924E-2
-4.4911221422847314E-1 2.591493813009304E-2
-4.3334229700831384E-1 6.886883635297358E-2
-4.138564102720883E-1 1.0901960367173956E-1
-3.910370380599442E-1 1.4608850235943716E-1
-3.652825054739758E-1 1.7984226671000852E-1
-3.3700208523793995E-1 2.1009329815564715E-1
-3.0661123088563197E-1 2.3669937754724377E-1
-2.745269754239455E-1 2.595629232255845E-1
-2.411635435777595E-1 2.7862982052413354E-1
-2.0692820328410194E-1 2.938878609361044E-1
-1.7221739280689968E-1 3.0536482295471107E-1
-1.3741314987384534E-1 3.131262323667702E-1
-1.0287986361897328E-1 3.172728415504561E-1
-6.896136735899534E-2 3.179378678839479E-1
-3.597838693469453E-2 3.1528403027836466E-1
-4.226351741644778E-3 3.095004259773591E-1
2.6026425585762736E-2 3.007992868028499E-1
5.45401997828439E-2 2.8941265461530996E-1
8.110487767841208E-2 2.755890143855157E-1
1.055407440433359E-1 2.595899219187462E-1
1.2769883718927919E-1 2.416866609496886E-1
1.4746098905232533E-1 2.221569633696551E-1
1.647395449715358E-1 2.012818230267251E-1
1.794767820807879E-1 1.7934243164088204E-1
1.0000000000000375 1.7608433115241974E-11
9.704790023931698E-1 -9.733965428789433E-2
9.323541107024768E-1 -1.8893115942851307E-1
8.864388040048289E-1 -2.741066307669299E-1
8.335875550864419E-1 -3.52297102697662E-1
7.746849944490523E-1 -4.2303360177251104E-1
7.106352889486363E-1 -4.859471324282159E-1
6.423518349726594E-1 -5.40767628767894E-1
5.707473575063943E-1 -5.873219330758541E-1
4.967244978698511E-1 -6.255308693416232E-1
4.211669639003926E-1 -6.554054862311811E-1
3.449313069167995E-1 -6.770425492767933E-1
2.6883938005753455E-1 -6.906193640747893E-1
1.936715229402063E-1 -6.963880176371502E-1
1.2016050811186628E-1 -6.946691274706602E-1
4.898627395196181E-2 -6.858451830192206E-1
-1.92285380876797E-2 -6.703535721441634E-1
-8.392223583493623E-2 -6.486793790151447E-1
-1.4459692147104578E-1 -6.213480384176198E-1
-2.008205356501095E-1 -5.889179302012644E-1
-2.5222812152943636E-1 -5.519729936113995E-1
-2.9852233242632603E-1 -5.111154369984362E-1
-3.394732148708492E-1 -4.66958613207615E-1
-3.7491730439518395E-1 -4.201201277258036E-1
-4.047560772791493E-1 -3.712152380248843E-1
-4.2895380526428634E-1 -3.2085059947820194E-1
-4.4753486488417993E-1 -2.696184051826224E-1
-4.605805554413322E-1 -2.1809096173262857E-1
-4.682254834021068E-1 -1.6681573451716364E-1
-4.7065357101300714E-1 -1.1631089339263602E-1
-4.6809374782076335E-1 -6.706137862285245E-2
-4.6081538774475217E-1 -1.9515501673606574E-2
-4.4912355038557694E-1 2.591790733108625E-2
-4.333540840351252E-1 6.887180467677263E-2
-4.1386864932591316E-1 1.0902269291032042E-1
-3.910497186184094E-1 1.4609184386066712E-1
-3.652956042456774E-1 1.7984599833987563E-1
-3.3701556557454193E-1 2.1009756096443613E-1
-3.0662504067022134E-1 2.3670431307949089E-1
-2.7454104900630155E-1 2.5956866883383833E-1
-2.4117780103367564E-1 2.786365063811801E-1
-2.069425500620445E-1 2.9389560713857094E-1
-1.7223172145087456E-1 3.05373735581028E-1
-1.374273409424679E-1 3.13136400515944E-1
-1.0289378695104488E-1 3.1728433472440665E-1
-6.897488421709211E-2 3.179507331650266E-1
-3.599135192194757E-2 3.152982904057108E-1
-4.2386146012928115E-3 3.095160777524945E-1
2.6015017090268926E-2 3.008162998146943E-1
5.452979755697819E-2 2.894309705713461E-1
8.109563109647416E-2 2.756085471205233E-1
1.055327972041242E-1 2.5961055769948566E-1
1.2769232661164953E-1 2.4170825950747424E-1
1.4745604143199695E-1 2.2217935944061573E-1
1.6473627504677657E-1 2.0130482842322867E-1
1.0000000000000375 1.7608433115241974E-11
9.704784817090335E-1 -9.733993539136436E-2
9.323530066644216E-1 -1.8893153391287487E-1
8.86437076962913E-1 -2.7410692627876915E-1
8.335851867709972E-1 -3.52297166505317E-1
7.746819851636506E-1 -4.2303330316233495E-1
7.106316548144868E-1 -4.8594636498491917E-1
6.423476048440593E-1 -5.407663117299889E-1
5.707425699923011E-1 -5.873200119833933E-1
4.967191982745532E-1 -6.255283154084414E-1
4.2116120162280124E-1 -6.554022958767471E-1
3.4492513269806274E-1 -6.77038742643278E-1
2.6883284384949996E-1 -6.90614982197226E-1
1.9366467182598152E-1 -6.963831210056799E-1
1.201533846683319E-1 -6.94663791715755E-1
4.897891497019332E-2 -6.858394961170486E-1
-1.923610255980625E-2 -6.703476309738698E-1
-8.392998377764449E-2 -6.486732855087556E-1
-1.4460483880140734E-1 -6.213418960411098E-1
-2.0082861653785902E-1 -5.889118401197229E-1
-2.522363683815753E-1 -5.519670514858082E-1
-2.985307555054085E-1 -5.111097294503595E-1
-3.3948183168403484E-1 -4.669532152097737E-1
-3.749261389598897E-1 -4.201150998730554E-1
-4.0476515907751404E-1 -3.712106244172294E-1
-4.2896316806273E-1 -3.208464259997106E-1
-4.475445452705613E-1 -2.6961467837936764E-1
-4.605905914707351E-1 -2.1808766775239605E-1
-4.6823591283690624E-1 -1.6681283942364236E-1
-4.706644293854689E-1 -1.1630834317477888E-1
-4.6810506627545356E-1 -6.705909989084684E-2
-4.608271918927521E-1 -1.951340316354739E-2
-4.491358581721773E-1 2.591993313738514E-2
-4.333669038697073E-1 6.887387936132813E-2
-4.13881978568849E-1 1.0902494953321859E-1
-3.9106354220513045E-1 1.4609442405197595E-1
-3.6530989357101673E-1 1.798490491615361E-1
-3.370302769403793E-1 2.101012318462372E-1
-3.0664011585616946E-1 2.3670875164708183E-1
-2.745564148670572E-1 2.595740174507381E-1
-2.4119336863168495E-1 2.7864289933975744E-1
-2.0695821626319744E-1 2.939031664037035E-1
-1.7224736969110463E-1 3.053825675969511E-1
-1.3744284224371048E-1 3.1314659328812045E-1
-1.029090017043755E-1 3.172959549173023E-1
-6.89896641839027E-2 3.1796382364360154E-1
-3.600554208758888E-2 3.153128683246251E-1
-4.252055914058436E-3 3.095321329991297E-1
2.600248548458526E-2 3.0083379388378473E-1
5.4518335705155456E-2 2.894498362243399E-1
8.10853956707598E-2 2.7562868843753185E-1
1.055239388045084E-1 2.5963185063820043E-1
1.2768498739328993E-1 2.41730553173571E-1
1.4745035267743467E-1 2.2220247787295475E-1
1.0000000000000375 1.7608433115241974E-11
9.704779300206989E-1 -9.73401252209436E-2
9.323518546640849E-1 -1.8893173875868927E-1
8.864352966029687E-1 -2.7410698893371677E-1
8.335827681448159E-1 -3.522969499534443E-1
7.74678934367347E-1 -4.230326934637078E-1
7.106279912562425E-1 -4.859452726333722E-1
6.423433583593345E-1 -5.407646728873765E-1
5.707377782513702E-1 -5.873177882194348E-1
4.967139043476125E-1 -6.255254936477859E-1
4.211554510395497E-1 -6.553988870554898E-1
3.449189716176088E-1 -6.770347793822961E-1
2.688263167626598E-1 -6.906105173485433E-1
1.936578202533006E-1 -6.963782239539057E-1
1.2014624523414075E-1 -6.946585457195803E-1
4.897151853853533E-2 -6.858339947371384E-1
-1.9243731940612137E-2 -6.703419745148499E-1
-8.393782953049787E-2 -6.486675773640619E-1
-1.4461289206498004E-1 -6.213362387931466E-1
-2.0083687639513614E-1 -5.889063326885615E-1
-2.5224484162737376E-1 -5.519617849186377E-1
-2.9853945638517954E-1 -5.111047843090976E-1
-3.394907812901749E-1 -4.669486587509272E-1
-3.749353644521931E-1 -4.2011098359716464E-1
-4.0477469268264016E-1 -3.71206982077055E-1
-4.28973045786224E-1 -3.2084327216697056E-1
-4.475548056132733E-1 -2.696120073369514E-1
-4.6060127385714406E-1 -2.1808545303678828E-1
-4.6824705583137377E-1 -1.6681103382353815E-1
-4.7067606851062754E-1 -1.1630687934914E-1
-4.6811723234232244E-1 -6.70578912587385E-2
-4.6083990950972054E-1 -1.9512345280934103E-2
-4.4914914331882116E-1 2.5920960450684483E-2
-4.3338076228066563E-1 6.887500968575558E-2
-4.1389640402220457E-1 1.0902632714191283E-1
-3.9107851524467035E-1 1.4609620079410635E-1
-3.653253798367061E-1 1.798513814119508E-1
-3.37046227072106E-1 2.1010427651596386E-1
-3.0665646470167984E-1 2.3671266274207403E-1
-2.7457308093112703E-1 2.595789427084244E-1
-2.4121025486086928E-1 2.7864897621884605E-1
-2.0697521068583888E-1 2.939105185799093E-1
-1.7226434624707435E-1 3.053913017524611E-1
-1.374596623740456E-1 3.131567959409153E-1
-1.0292551604755588E-1 3.1730768976690443E-1
-6.900571480008415E-2 3.1797712896006114E-1
-3.6020964543819575E-2 3.1532775540825564E-1
-4.26668187980736E-3 3.095485845278482E-1
2.5988825617114165E-2 3.0085176320296886E-1
5.4505810111821366E-2 2.8946924698100535E-1
8.107416827753373E-2 2.756494347772871E-1
1.0551416670566745E-1 2.596537981660211E-1
1.2767681824194055E-1 2.417535403445217E-1
1.0000000000000375 1.7608433115241974E-11
9.704773538185488E-1 -9.734023008016879E-2
9.323506658816009E-1 -1.8893178747337536E-1
8.86433476359046E-1 -2.7410683962427673E-1
8.335803132970928E-1 -3.5229648203225916E-1
7.746758552556303E-1 -4.230318096078018E-1
7.10624309244714E-1 -4.8594390034397633E-1
6.423391036064852E-1 -5.407627646897739E-1
5.707329871547152E-1 -5.87315321623319E-1
4.9670861700318447E-1 -6.255224707532179E-1
4.2114970931973944E-1 -6.553953322169176E-1
3.449128171116475E-1 -6.770307378259367E-1
2.688197892532341E-1 -6.90606052143329E-1
1.9365095578707825E-1 -6.963734133425868E-1
1.2013907511121794E-1 -6.946534797155367E-1
4.896406826156859E-2 -6.858287716955633E-1
-1.925144349349298E-2 -6.703366973954236E-1
-8.394579067668637E-2 -6.48662350084772E-1
-1.4462109858993935E-1 -6.213311630133133E-1
-2.008453316166078E-1 -5.889015037196139E-1
-2.52253556306643E-1 -5.519572888629543E-1
-2.9854844842474687E-1 -5.111006950620635E-1
-3.395000751394711E-1 -4.6694503534984066E-1
-3.7494499029009265E-1 -4.201078678965994E-1
-4.047846854336565E-1 -3.7120439717254655E-1
-4.289834439094938E-1 -3.208412209054458E-1
-4.4756564964622064E-1 -2.696104715182086E-1
-4.606126048626497E-1 -2.1808439320286938E-1
-4.682589138323946E-1 -1.6681038929647057E-1
-4.7068848855377293E-1 -1.163065695455867E-1
-4.6813024602665076E-1 -6.705781592605506E-2
-4.608535405113632E-1 -1.9512386897924127E-2
-4.4916340602959004E-1 2.592093475178996E-2
-4.333956599774728E-1 6.887514549309175E-2
-4.139119272385705E-1 1.0902677983671098E-1
-3.910946398469571E-1 1.4609713258207804E-1
-3.653420665197832E-1 1.7985295746222357E-1
-3.3706342024547103E-1 2.1010666144779946E-1
-3.066740919498981E-1 2.3671601694583505E-1
-2.745910530236967E-1 2.595834185670869E-1
-2.4122846619729274E-1 2.78654714339987E-1
-2.0699354011354587E-1 2.9391764418046123E-1
-1.72282658161926E-1 3.0539992139009176E-1
-1.3747780846750432E-1 3.1316699438763407E-1
-1.0294333681356405E-1 3.1731952744233777E-1
-6.90230424346928E-2 3.179906394072444E-1
-3.603762487082434E-2 3.153429437611868E-1
-4.282497233232805E-3 3.0956542612040255E-1
2.597403356619258E-2 3.0087020287680505E-1
5.449221765700058E-2 2.89489199042319E-1
8.106194674737106E-2 2.756707834685956E-1
1.0550347954968181E-1 2.596763986205116E-1
1.0000000000000375 1.7608433115241974E-11
9.704767589046398E-1 -9.734025647137219E-2
9.323494494487291E-1 -1.8893169423804063E-1
8.864316270146171E-1 -2.741065003934028E-1
8.335778330497948E-1 -3.5229579258679106E-1
7.746727574794041E-1 -4.230306894556616E-1
7.106206165652126E-1 -4.859422935964986E-1
6.423348457131648E-1 -5.40760640177164E-1
5.707281985231323E-1 -5.873126726329028E-1
4.9670333494460533E-1 -6.255193134330329E-1
4.211439721037756E-1 -6.553917043221221E-1
3.449066621981085E-1 -6.770266959998545E-1
2.6881325165563424E-1 -6.906016694253787E-1
1.9364406684264598E-1 -6.96368775899493E-1
1.201318613496244E-1 -6.946486836556871E-1
4.8956550484366174E-2 -6.858239194661825E-1
-1.9259250897030473E-2 -6.703318934297188E-1
-8.395388033628347E-2 -6.486576988697524E-1
-1.446294703063282E-1 -6.213267639654657E-1
-2.008539925156879E-1 -5.888974482624617E-1
-2.5226252075943956E-1 -5.519536574189874E-1
-2.985577377635678E-1 -5.110975542878597E-1
-3.395097170213728E-1 -4.6694243547727743E-1
-3.7495501798158526E-1 -4.201058408847965E-1
-4.0479513670484873E-1 -3.712029549019403E-1
-4.2899435981858003E-1 -3.2084035413312356E-1
-4.4757707318588297E-1 -2.6961014934505095E-1
-4.606245790788272E-1 -2.18084562914964E-1
-4.6827147926644E-1 -1.6681097679528217E-1
-4.707016831252258E-1 -1.1630748017689871E-1
-4.6814410093455283E-1 -6.705893622372608E-2
-4.60868078961202E-1 -1.9513586028853093E-2
-4.4917864114751305E-1 2.5919802377466637E-2
-4.334115930507187E-1 6.887423739328413E-2
-4.139285452113459E-1 1.0902626266571051E-1
-3.9111191470203127E-1 1.46097178537255E-1
-3.6535995364003565E-1 1.798537406136413E-1
-3.3708185775583227E-1 2.1010835398638122E-1
-3.066930002385222E-1 2.3671878536102187E-1
-2.7461033484791464E-1 2.5958741977422256E-1
-2.4124800715624695E-1 2.786600918688689E-1
-2.0701320981697366E-1 2.9392452446031503E-1
-1.72302311100365E-1 3.0540841065959895E-1
-1.37497286092013E-1 3.131771755460635E-1
-1.0296246963912582E-1 3.173314570496768E-1
-6.90416523519836E-2 3.1800434619133977E-1
-3.60555278826831E-2 3.1535842638646966E-1
-4.299506240608143E-3 3.095826522891835E-1
2.5958105901640986E-2 3.0088910885370646E-1
5.447755579669961E-2 2.895096896591941E-1
8.104872935004453E-2 2.7569273287018947E-1
1.0000000000000375 1.7608433115241974E-11
9.704761498304716E-1 -9.734021171862557E-2
9.323482127064865E-1 -1.8893147369728003E-1
8.864297570583388E-1 -2.741059937309484E-1
8.335753357287151E-1 -3.5229491213987085E-1
7.746696482105323E-1 -4.230293714311186E-1
7.106169184193228E-1 -4.8594049860714195E-1
6.423305874025731E-1 -5.407583530554307E-1
5.707234125392617E-1 -5.87309901687557E-1
4.9669805573948494E-1 -6.255160887974487E-1
4.211382344769091E-1 -6.553880762488036E-1
3.449004996758311E-1 -6.770227320771235E-1
2.688066951679836E-1 -6.905974518459373E-1
1.9363714355400546E-1 -6.963643981193022E-1
1.2012459365797726E-1 -6.946442471385301E-1
4.894895525642025E-2 -6.858195291828506E-1
-1.9267163346207112E-2 -6.703276563957838E-1
-8.396210622493173E-2 -6.486537181128198E-1
-1.4463801293473447E-1 -6.213231360693319E-1
-2.0086286251534052E-1 -5.888942602485239E-1
-2.5227173593678115E-1 -5.519509836194306E-1
-2.9856732267602365E-1 -5.110954534234926E-1
-3.395197026145713E-1 -4.6694094862017166E-1
-3.749654406873639E-1 -4.2010498939646806E-1
-4.048060374257863E-1 -3.7120273915729685E-1
-4.2900578263866007E-1 -3.2084075255848793E-1
-4.475890640012871E-1 -2.6961111797686277E-1
-4.606371833050962E-1 -2.1808603533856874E-1
-4.682847398883689E-1 -1.6681286554847777E-1
-4.7071563920250303E-1 -1.163096768024135E-1
-4.681587844889489E-1 -6.706131332394472E-2
-4.608835133476441E-1 -1.9515999604084386E-2
-4.491948386051383E-1 2.5917510639303094E-2
-4.334285527796766E-1 6.887223703160378E-2
-4.1394625143202773E-1 1.0902473156117579E-1
-3.911303351014731E-1 1.4609629884111083E-1
-3.653790383418657E-1 1.7985369518578254E-1
-3.3710153851383473E-1 2.1010932243282404E-1
-3.067131901131378E-1 2.3672094009572336E-1
-2.7463092834205166E-1 2.5959092203362116E-1
-2.4126888102011013E-1 2.7866508780495913E-1
-2.0703422356479884E-1 2.939311417486778E-1
-1.72323309427811E-1 3.054167548067389E-1
-1.3751809965968975E-1 3.131873270902468E-1
-1.0298291900333438E-1 3.1734346880260184E-1
-6.906154886089337E-2 3.1801824147972707E-1
-3.607467739647275E-2 3.1537419726078525E-1
-4.317711961923755E-3 3.096002586518661E-1
2.5941040297269232E-2 3.009084781245309E-1
5.44618230779493E-2 2.895307170694243E-1
1.0000000000000375 1.7608433115241974E-11
9.704755303240502E-1 -9.734010312175996E-2
9.323469614666636E-1 -1.8893114092624255E-1
8.864278730158381E-1 -2.7410534268923775E-1
8.33572827475897E-1 -3.522938717523298E-1
7.746665323624727E-1 -4.2302789451498857E-1
7.106132178792922E-1 -4.8593856203218216E-1
6.423263296641463E-1 -5.407559573144095E-1
5.707186279844491E-1 -5.873070696098232E-1
4.9669277612556934E-1 -6.255128640778389E-1
4.211324913689814E-1 -6.553845209445543E-1
3.448943231654985E-1 -6.770189240750546E-1
2.68800112659378E-1 -6.905934817612613E-1
1.936301786554144E-1 -6.963603660808818E-1
1.2011726538430093E-1 -6.946402586153957E-1
4.8941276836894074E-2 -6.858156928292476E-1
-1.9275184616115167E-2 -6.703240788458641E-1
-8.397046978333461E-2 -6.48650500984699E-1
-1.4464672538821474E-1 -6.213203728640057E-1
-2.0087193763438202E-1 -5.888920327613714E-1
-2.5228119469872795E-1 -5.519493592550117E-1
-2.9857719302105784E-1 -5.11094482603141E-1
-3.39530018881189E-1 -4.6694066261589445E-1
-3.749762428404693E-1 -4.2010539869744074E-1
-4.048173699181317E-1 -3.712038322945867E-1
-4.2901769339058954E-1 -3.208424951657344E-1
-4.4760160199781024E-1 -2.696134527652261E-1
-4.6065039688757187E-1 -2.1808888268356333E-1
-4.6829867504741984E-1 -1.6681612362328901E-1
-4.707303368760246E-1 -1.1631322318082267E-1
-4.681742782561158E-1 -6.706500707019608E-2
-4.608998269805466E-1 -1.9519683273784914E-2
-4.4921198388760264E-1 2.5914008106021142E-2
-4.3344652693395447E-1 6.886909749787905E-2
-4.139650358866602E-1 1.090221437244111E-1
-3.911498933698008E-1 1.4609445494589032E-1
-3.653993152786987E-1 1.7985278672197175E-1
-3.371224593616523E-1 2.101095363065814E-1
-3.067346603543824E-1 2.3672245447663873E-1
-2.746528339950248E-1 2.5959390229169604E-1
-2.4129108928508408E-1 2.786696826151106E-1
-2.0705658422083492E-1 2.9393747953127525E-1
-1.7234565612588593E-1 3.054249402404471E-1
-1.3754025329355224E-1 3.1319743793154853E-1
-1.0300468867891568E-1 3.173555539556201E-1
-6.908273540249447E-2 3.1803231863139475E-1
-3.609507635310635E-2 3.153902515539552E-1
-4.337116704743915E-3 3.0961824193736104E-1
2.5922835281547457E-2 3.009283088165795E-1
1.0000000000000375 1.7608433115241974E-11
9.704749033387293E-1 -9.733993823335955E-2
9.323457002154603E-1 -1.8893071137204348E-1
8.864259797408733E-1 -2.741045707409943E-1
8.335703126047526E-1 -3.5229270292426024E-1
7.746634130498765E-1 -4.2302629809594416E-1
7.106095165041078E-1 -4.8593653093649536E-1
6.423220723139271E-1 -5.407535071708911E-1
5.707138430418438E-1 -5.873042375458786E-1
4.9668749280621444E-1 -6.255097065170132E-1
4.2112673847139853E-1 -6.553811112164399E-1
3.448881279208027E-1 -6.770153497603686E-1
2.687934995288234E-1 -6.905898412397244E-1
1.9362316844353472E-1 -6.963567650330738E-1
1.2010987408861866E-1 -6.946368069334539E-1
4.893351509992258E-2 -6.858125004643412E-1
-1.928331225590393E-2 -6.703212522437682E-1
-8.39789656113504E-2 -6.486481397806998E-1
-1.4465559882888449E-1 -6.213185664338745E-1
-2.0088120549550095E-1 -5.888908571462205E-1
-2.522908812293669E-1 -5.519488744434325E-1
-2.985873296522041E-1 -5.110947301234517E-1
-3.3954064373517834E-1 -4.6694166360089745E-1
-3.749873998777148E-1 -4.201071523435494E-1
-4.0482910804360067E-1 -3.712063148159023E-1
-4.2903006427410434E-1 -3.2084565937923476E-1
-4.476146586515246E-1 -2.696172279575532E-1
-4.606641917006169E-1 -2.1809317505681286E-1
-4.683132573197894E-1 -1.6682081722393866E-1
-4.707457503280525E-1 -1.163181817215047E-1
-4.681905583301977E-1 -6.707007566593041E-2
-4.609169983367455E-1 -1.9524691011282295E-2
-4.492300579099103E-1 2.590924520584779E-2
-4.33465499544483E-1 6.886477321429646E-2
-4.1398488547841167E-1 1.0901845798011363E-1
-3.9117057942041733E-1 1.4609160974398755E-1
-3.654207771195759E-1 1.798509822213558E-1
-3.371446154944436E-1 2.101089665768898E-1
-3.0675740837479554E-1 2.367233032813548E-1
-2.746760510059481E-1 2.595963389527227E-1
-2.4131463262885494E-1 2.7867385819300483E-1
-2.0708029321872548E-1 2.9394352282023284E-1
-1.7236935420746807E-1 3.0543295458354636E-1
-1.375637497740076E-1 3.1320749845973594E-1
-1.0302778154861728E-1 3.173677051534363E-1
-6.910521460124344E-2 3.1804657230570005E-1
-3.6116726840761226E-2 3.1540658568981994E-1
-4.357721883932004E-3 3.0963660010031374E-1
1.0000000000000375 1.7608433115241974E-11
9.704742711594122E-1 -9.733972480359551E-2
9.323444323112144E-1 -1.8893020078223702E-1
8.86424080696532E-1 -2.7410370169464243E-1
8.335677939732434E-1 -3.522914375042125E-1
7.746602920702661E-1 -4.2302462188565004E-1
7.106058147932999E-1 -4.85934452517207E-1
6.423178145828413E-1 -5.407510570702527E-1
5.707090557974379E-1 -5.873014664191143E-1
4.966822031625552E-1 -6.255066830716736E-1
4.2112097303939766E-1 -6.553779196438513E-1
3.448819116113099E-1 -6.770120864492123E-1
2.687868545777023E-1 -6.905866115519896E-1
1.936161133883177E-1 -6.963536798735902E-1
1.2010242275638287E-1 -6.946339792403319E-1
4.892567602805336E-2 -6.858100411360273E-1
-1.9291536859200216E-2 -6.703192668758531E-1
-8.398758044615177E-2 -6.48646725134953E-1
-1.446646160147748E-1 -6.213178072154489E-1
-2.0089064486241323E-1 -5.888908229878104E-1
-2.523007704671794E-1 -5.519496173902348E-1
-2.9859770407533154E-1 -5.110962823667327E-1
-3.395515457322901E-1 -4.6694403568061926E-1
-3.7499887821314576E-1 -4.201103317786833E-1
-4.048412161121045E-1 -3.7121026535691454E-1
-4.2904285887575455E-1 -3.2085032056949986E-1
-4.476281977877609E-1 -2.6962251526738656E-1
-4.6067853237069556E-1 -2.1809898054842397E-1
-4.683284529529883E-1 -1.668270108092856E-1
-4.70761847966556E-1 -1.1632461285345949E-1
-4.682075958007278E-1 -6.707657541700854E-2
-4.609350015929624E-1 -1.9531075001214804E-2
-4.4924903837052954E-1 2.5903173877734643E-2
-4.334854516377086E-1 6.885922045101833E-2
-4.140057848059089E-1 1.0901363470006405E-1
-3.9119238121554906E-1 1.4608772783466678E-1
-3.6544341495767774E-1 1.7984825036689672E-1
-3.3716800081635195E-1 2.1010758588488765E-1
-3.0678143056187324E-1 2.3672346295283606E-1
-2.7470057753905053E-1 2.595982121562977E-1
-2.4133951108422896E-1 2.7867759777148243E-1
-2.0710535214398262E-1 2.939492578845019E-1
-1.723944055822602E-1 3.054407871003613E-1
-1.3758859124519063E-1 3.1321750054847836E-1
-1.0305219978430237E-1 3.173799164933788E-1
-6.912898830754559E-2 3.1806099855930636E-1
-3.6139630235722614E-2 3.1542319740068825E-1
1.0000000000000375 1.7608433115241974E-11
9.70473635498208E-1 -9.733947071216817E-2
9.323431601557683E-1 -1.8892962500734264E-1
8.864221782297429E-1 -2.741027595706644E-1
8.335652733471695E-1 -3.522901075810242E-1
7.746571703230181E-1 -4.23022905801596E-1
7.106021127312002E-1 -4.8593237418635626E-1
6.423135556777823E-1 -5.407486613604234E-1
5.707042650566453E-1 -5.872988171289885E-1
4.9667690611430054E-1 -6.255038607312259E-1
4.2111519461033586E-1 -6.553750183375546E-1
3.4487567513023604E-1 -6.770092107648092E-1
2.687801807416211E-1 -6.905838732394262E-1
1.936090191191017E-1 -6.963511943720646E-1
1.2009492049759368E-1 -6.946318615799902E-1
4.891777259331881E-2 -6.85808402555253E-1
-1.929984116491965E-2 -6.703182113653362E-1
-8.399629250736441E-2 -6.486463458948994E-1
-1.446737506042775E-1 -6.213181836538629E-1
-2.009002250452636E-1 -5.888920177710313E-1
-2.5231082769294616E-1 -5.519516741131637E-1
-2.986082780644995E-1 -5.110992233680222E-1
-3.395626838193277E-1 -4.6694786059840737E-1
-3.7501063463458084E-1 -4.201150160284719E-1
-4.048536498931883E-1 -3.712157600082245E-1
-4.290560327973877E-1 -3.2085655155947274E-1
-4.4764217569730064E-1 -2.696293841144977E-1
-4.6069337675775984E-1 -2.181063650519199E-1
-4.683442221014891E-1 -1.6683476647038614E-1
-4.7077859290615937E-1 -1.1633257471813269E-1
-4.6822535730884396E-1 -6.708456057525056E-2
-4.609538072455754E-1 -1.9538885375712082E-2
-4.4926889973438855E-1 2.589574816260816E-2
-4.3350636182301444E-1 6.885239741427876E-2
-4.1402771655979753E-1 1.0900763626704457E-1
-3.912152852139874E-1 1.4608277573123346E-1
-3.654672187266581E-1 1.7984456174715E-1
-3.3719260839021786E-1 2.101053687495372E-1
-3.0680672228773126E-1 2.3672291189465627E-1
-2.7472641168226425E-1 2.5959950364538753E-1
-2.4136572414150376E-1 2.786808865857055E-1
-2.071317615573283E-1 2.939546730457881E-1
-1.7242081136149584E-1 3.054484289516131E-1
-1.3761477931166913E-1 3.1322743767058003E-1
-1.0307794489689084E-1 3.1739218363762234E-1
-6.915405774790326E-2 3.1807559488586895E-1
1.0000000000000375 1.7608433115241974E-11
9.704729975916903E-1 -9.733918390470309E-2
9.323418854390186E-1 -1.8892900029090443E-1
8.864202738815913E-1 -2.7410176871611486E-1
8.33562751777778E-1 -3.522887454356435E-1
7.746540482635651E-1 -4.230211897945745E-1
7.105984102985642E-1 -4.8593034325875295E-1
6.423092954023394E-1 -5.407463742906914E-1
5.706994709451014E-1 -5.87296350406024E-1
4.966716026613239E-1 -6.255013058432364E-1
4.211094058118712E-1 -6.553724788045675E-1
3.4486942344109867E-1 -6.770067986882568E-1
2.687734859348286E-1 -6.905817061038877E-1
1.9360189736603525E-1 -6.963493910680899E-1
1.2008738334663951E-1 -6.946305385174848E-1
4.890982557097737E-2 -6.858076707458496E-1
-1.9308199312864413E-2 -6.70318172391918E-1
-8.400507081781718E-2 -6.486470887801925E-1
-1.4468296662624533E-1 -6.213197818359224E-1
-2.0090990536256267E-1 -5.888945265273705E-1
-2.523210080761123E-1 -5.519551279941793E-1
-2.986190034134561E-1 -5.111036344126457E-1
-3.395740073159325E-1 -4.669532171309092E-1
-3.7502261657168245E-1 -4.201212814148072E-1
-4.048663564437855E-1 -3.7122287201064513E-1
-4.290695336036092E-1 -3.208644224793423E-1
-4.476565414371336E-1 -2.6963790130096477E-1
-4.6070867631450824E-1 -2.1811539184452886E-1
-4.683605194236953E-1 -1.6684414380785123E-1
-4.707959436441804E-1 -1.163421231792343E-1
-4.6824380565574464E-1 -6.709408302245627E-2
-4.60973382677464E-1 -1.9548169982830696E-2
-4.4928961414910545E-1 2.5886924334054387E-2
-4.335282069735513E-1 6.884426444645082E-2
-4.1405066207535335E-1 1.0900042717420678E-1
-3.9123927688410975E-1 1.4607672209334674E-1
-3.6549217767447023E-1 1.7983988905871E-1
-3.372184305046019E-1 2.101022919231986E-1
-3.068332791284662E-1 2.3672163030924517E-1
-2.7475355080599534E-1 2.596001973090422E-1
-2.4139327106644864E-1 2.7868371168542977E-1
-2.071595216286018E-1 2.939597584659977E-1
-1.7244857253962972E-1 3.054558728772142E-1
-1.3764231518860168E-1 3.13237304949589E-1
-1.0310501808754767E-1 3.174045036860389E-1
1.0000000000000375 1.7608433115241974E-11
9.704723583169814E-1 -9.733887255862299E-2
9.32340609276708E-1 -1.8892834291048297E-1
8.864183686270231E-1 -2.7410075351436836E-1
8.335602299472913E-1 -3.5228738339013155E-1
7.746509263514934E-1 -4.230195138495161E-1
7.105947080015419E-1 -4.8592840698030215E-1
6.42305034763511E-1 -5.407442499068497E-1
5.706946755506076E-1 -5.872941264668148E-1
4.9666629668576445E-1 -6.254990842825958E-1
4.211036130909451E-1 -6.553703716863398E-1
3.4486316622442625E-1 -6.770049252060937E-1
2.6876678397501325E-1 -6.905801884342615E-1
1.9359476681280063E-1 -6.963483505434098E-1
1.2007983507566028E-1 -6.946300928701374E-1
4.890186435016435E-2 -6.858079296444657E-1
-1.9316576166727627E-2 -6.703192343570539E-1
-8.401387455889892E-2 -6.486490380559984E-1
-1.4469221785120556E-1 -6.213226853063609E-1
-2.00919634687331E-1 -5.888984313406009E-1
-2.523312563839689E-1 -5.519600594399391E-1
-2.986298214220703E-1 -5.111095941879547E-1
-3.3958545547332075E-1 -4.669601813763158E-1
-3.7503476262902E-1 -4.2012920110148216E-1
-4.048792744461795E-1 -3.7123167162873805E-1
-4.2908330125074473E-1 -3.2087400050634174E-1
-4.476712373568813E-1 -2.696481307348513E-1
-4.607243768016846E-1 -2.1812612143670398E-1
-4.683772946591841E-1 -1.6685519971585341E-1
-4.708138547448008E-1 -1.1635331143265086E-1
-4.68262900488083E-1 -6.710519206983075E-2
-4.6099369287995073E-1 -1.9558974184361796E-2
-4.493111518992465E-1 2.5876661059013015E-2
-4.3355096268827764E-1 6.883478429958625E-2
-4.1407460183894607E-1 1.0899197432703155E-1
-3.9126434123000736E-1 1.4606953791710506E-1
-3.655182805979915E-1 1.7983420741077433E-1
-3.372454597263309E-1 2.1009833412633014E-1
-3.0686109624133756E-1 2.3671960078810353E-1
-2.747819924330759E-1 2.596002791222602E-1
-2.4142215084211838E-1 2.786860623329096E-1
-2.0718863252906689E-1 2.9396450621331094E-1
-1.7247768982920902E-1 3.0546311354712624E-1
-1.3767119965620428E-1 3.1324709934357814E-1
1.0000000000000375 1.7608433115241974E-11
9.704717182606682E-1 -9.733854483292029E-2
9.323393324132524E-1 -1.8892766922179668E-1
8.864164631682918E-1 -2.740997384210588E-1
8.335577085401961E-1 -3.5228605377642613E-1
7.746478054908581E-1 -4.230179178615627E-1
7.10591007364493E-1 -4.859266123623725E-1
6.423007765465993E-1 -5.407423418732795E-1
5.706898836009003E-1 -5.872922049983675E-1
4.966609957069529E-1 -6.254972609561527E-1
4.2109782740384966E-1 -6.55368766900276E-1
3.448569188796295E-1 -6.770036639181469E-1
2.687600954673719E-1 -6.905793966860443E-1
1.9358765349612464E-1 -6.963481521921676E-1
1.2007230798622386E-1 -6.946306053932346E-1
4.889392763889528E-2 -6.858092609005733E-1
-1.9324926646103146E-2 -6.703214790726955E-1
-8.402265243519616E-2 -6.486522749408197E-1
-1.4470144731321818E-1 -6.213269742577014E-1
-2.0092935118936472E-1 -5.889038110566639E-1
-2.523415067097731E-1 -5.519665454726284E-1
-2.9864066401421924E-1 -5.111171767649584E-1
-3.3959695813108004E-1 -4.6696882554549124E-1
-3.750470022825372E-1 -4.201388447008731E-1
-4.048923344906856E-1 -3.712422257371459E-1
-4.290972687220494E-1 -3.2088534955441217E-1
-4.476861999376738E-1 -2.6966013317727144E-1
-4.6074041878440547E-1 -2.1813861125165923E-1
-4.683944936382472E-1 -1.6686798823902316E-1
-4.7083227744743017E-1 -1.1636618977759529E-1
-4.6828259903134756E-1 -6.711793429390257E-2
-4.610147011384794E-1 -1.957134068060336E-2
-4.493334824982079E-1 2.586491951084296E-2
-4.335746038610144E-1 6.88239223791229E-2
-4.1409951593298044E-1 1.0898224727617836E-1
-3.9129046305086823E-1 1.460611967813544E-1
-3.6554551684133463E-1 1.7982749410247081E-1
-3.372736888423546E-1 2.100934765587674E-1
-3.068901691277205E-1 2.3671680820297578E-1
-2.7481173415023896E-1 2.5959973739337977E-1
-2.4145236260309677E-1 2.786879299131756E-1
-2.0721909432436517E-1 2.9396891046879725E-1
-1.725081636407636E-1 3.054701476233106E-1
1.0000000000000375 1.7608433115241974E-11
9.704710778234145E-1 -9.733820893549686E-2
9.323380554097661E-1 -1.88926995626321E-1
8.864145582092874E-1 -2.7409874788481453E-1
8.335551886093715E-1 -3.522847888509573E-1
7.746446874768353E-1 -4.2301644153215945E-1
7.105873115436936E-1 -4.859250061427683E-1
6.422965259379322E-1 -5.407407033183054E-1
5.706851031785681E-1 -5.872906449217461E-1
4.966557114150263E-1 -6.254959002260785E-1
4.210920651402328E-1 -6.553677328644393E-1
3.448507032367901E-1 -6.770030868107373E-1
2.687534482153352E-1 -6.905794059974633E-1
1.9358059204637537E-1 -6.963488728711107E-1
1.2006484371986917E-1 -6.946321542705339E-1
4.888606419059975E-2 -6.858117430484456E-1
-1.9333194982789702E-2 -6.703249849839029E-1
-8.403134215608742E-2 -6.486568772454537E-1
-1.4471058696216577E-1 -6.213327253474575E-1
-2.0093898194852497E-1 -5.889107406251465E-1
-2.523516830208281E-1 -5.519746586491568E-1
-2.98651451996054E-1 -5.111264534235432E-1
-3.396084355643189E-1 -4.6697921811342413E-1
-3.7505925634068454E-1 -4.201502783317022E-1
-4.049054592975321E-1 -3.712545976510036E-1
-4.291113620511688E-1 -3.208985299762134E-1
-4.477013593882179E-1 -2.696739659429062E-1
-4.607567381909174E-1 -2.1815291537294368E-1
-4.684120585185373E-1 -1.668825600719238E-1
-4.708511606106169E-1 -1.1638080553585767E-1
-4.683028569438758E-1 -6.71323533788689E-2
-4.610363698873418E-1 -1.958530937138918E-2
-4.493565745181758E-1 2.5851663898668498E-2
-4.3359910548850356E-1 6.881164672509575E-2
-4.141253851527541E-1 1.0897121795951902E-1
-3.9131762807310067E-1 1.4605167472609296E-1
-3.655738761741894E-1 1.7981972919433667E-1
-3.373031109602958E-1 2.1008770311835143E-1
-3.069204936920162E-1 2.3671323996641191E-1
-2.748427739144365E-1 2.5959856280998245E-1
-2.4148390562436436E-1 2.78689308106765E-1
-2.072509070272374E-1 2.939729675832677E-1
1.0000000000000375 1.7608433115241974E-11
9.704704373142736E-1 -9.733787310445412E-2
9.3233677883161E-1 -1.8892633854234586E-1
8.864126547295984E-1 -2.740978062953076E-1
8.335526719257185E-1 -3.522836207043755E-1
7.746415754654604E-1 -4.2301512427734655E-1
7.105836257904209E-1 -4.859236345253457E-1
6.422922911112735E-1 -5.407393867584531E-1
5.706803462412303E-1 -5.872895043562395E-1
4.966504606241959E-1 -6.254950648341326E-1
4.2108634878842155E-1 -6.553673364900942E-1
3.4484454824015703E-1 -6.77003264168984E-1
2.6874687839344974E-1 -6.905802889804341E-1
1.9357362626090643E-1 -6.963505868576477E-1
1.2005749392680129E-1 -6.946348145100416E-1
4.887833350073474E-2 -6.858154514643696E-1
-1.9341314232742032E-2 -6.703298269501923E-1
-8.40398700356513E-2 -6.486629189001457E-1
-1.4471955738726783E-1 -6.21340010943085E-1
-2.0094844320024183E-1 -5.889192906652635E-1
-2.5236169766296795E-1 -5.51984468227457E-1
-2.9866209653696596E-1 -5.111374906885172E-1
-3.396197990321511E-1 -4.6699142340206645E-1
-3.7507143787146624E-1 -4.201635635977346E-1
-4.0491856515667163E-1 -3.712688464885139E-1
-4.291255019031282E-1 -3.2091359820181015E-1
-4.4771664227024854E-1 -2.6968968265970084E-1
-4.607732678851477E-1 -2.1816908455135803E-1
-4.684299290907639E-1 -1.668989628071728E-1
-4.7087045153704216E-1 -1.1639720289687182E-1
-4.6832362900395497E-1 -6.714848989689515E-2
-4.6105866120006095E-1 -1.9600916997792723E-2
-4.493803972762032E-1 2.5836861268013763E-2
-4.3362444321654897E-1 6.879792842875192E-2
-4.1415219052545066E-1 1.0895886170064391E-1
-3.9134582287065106E-1 1.4604095058232133E-1
-3.656033492616865E-1 1.7981089546190893E-1
-3.373337200443296E-1 2.1008100035807628E-1
-3.069520665261557E-1 2.367088860745424E-1
-2.748751101401564E-1 2.59596748539919E-1
-2.4151677951150843E-1 2.786901929268679E-1
1.0000000000000375 1.7608433115241974E-11
9.704697970384362E-1 -9.733754554706323E-2
9.323355033961159E-1 -1.8892571420727972E-1
8.864107542584605E-1 -2.740969378747954E-1
8.335501613774233E-1 -3.522825812098231E-1
7.74638474403668E-1 -4.230140051589859E-1
7.10579957955978E-1 -4.859225432101831E-1
6.422880838041102E-1 -5.407384437967115E-1
5.706756294614672E-1 -5.872888401305925E-1
4.9664526583532487E-1 -6.254948162460429E-1
4.2108070767893246E-1 -6.553676428959643E-1
3.4483849086389967E-1 -6.770042639233291E-1
2.6874043118941726E-1 -6.905821155831114E-1
1.935668099165766E-1 -6.963533652449205E-1
1.200503210657788E-1 -6.946386577871048E-1
4.887080637981012E-2 -6.858204575732647E-1
-1.9349205787423156E-2 -6.703360756406616E-1
-8.404815073213708E-2 -6.486704691919895E-1
-1.447282674239447E-1 -6.21348898919126E-1
-2.0095763938789507E-1 -5.889295273450892E-1
-2.523714528697312E-1 -5.51996038132474E-1
-2.98672499250759E-1 -5.111503504799475E-1
-3.396309512478891E-1 -4.670055010411441E-1
-3.750834523389415E-1 -4.2017875786558795E-1
-4.049315619398689E-1 -3.7128502722736E-1
-4.2913960404793006E-1 -3.209306068029957E-1
-4.4773197112191715E-1 -2.697073332640636E-1
-4.607899381725199E-1 -2.1818716585858108E-1
-4.6844804369200566E-1 -1.6691724042988193E-1
-4.70890096966374E-1 -1.1641542262975282E-1
-4.6834487011321235E-1 -6.716638112208512E-2
-4.6108153800049484E-1 -1.961819726714779E-2
-4.494049210366151E-1 2.5820481671300844E-2
-4.336505938370514E-1 6.878274155908116E-2
-4.1417991551634376E-1 1.0894515600816353E-1
-3.913750348934249E-1 1.4602900648033723E-1
-3.6563392770687236E-1 1.7980097878915485E-1
-3.373655111546204E-1 2.1007335759313037E-1
-3.069848850345154E-1 2.367037392254361E-1
-2.749087418985447E-1 2.595942902653231E-1
1.0000000000000375 1.7608433115241974E-11
9.704691573893691E-1 -9.73372344136559E-2
9.323342302583418E-1 -1.889251390070716E-1
8.864088591914968E-1 -2.740961667970675E-1
8.335476613192568E-1 -3.522817019379562E-1
7.7463539148168E-1 -4.230131226532115E-1
7.105763190765226E-1 -4.8592177703067996E-1
6.422839199577574E-1 -5.407379249805155E-1
5.706709747124525E-1 -5.872887078438916E-1
4.966401560591358E-1 -6.254952139951973E-1
4.2107517879420653E-1 -6.553687149437736E-1
3.4483257686696145E-1 -6.770061512772144E-1
2.687341615981157E-1 -6.90584952510279E-1
1.9356020747087124E-1 -6.963572756123115E-1
1.2004339893689535E-1 -6.946437516623424E-1
4.886356560311133E-2 -6.858268282790778E-1
-1.9356778920715915E-2 -6.703437968911984E-1
-8.405608653210916E-2 -6.486795926483997E-1
-1.447366142872977E-1 -6.213594519061701E-1
-2.0096646402650573E-1 -5.889415114662547E-1
-2.523808406911827E-1 -5.520094271805335E-1
-2.9868255254566295E-1 -5.111650895719946E-1
-3.3964178695683994E-1 -4.670215057932161E-1
-3.7509519870757463E-1 -4.20195913907717E-1
-4.049443544249273E-1 -3.7130319053240485E-1
-4.29153580326519E-1 -3.2094960418630625E-1
-4.4774726594950537E-1 -2.697269637634761E-1
-4.608066777821717E-1 -2.1820720270451835E-1
-4.684663403235573E-1 -1.669374334824611E-1
-4.7091004369674905E-1 -1.1643550204362725E-1
-4.683665361927364E-1 -6.718606110501618E-2
-4.6110496448552407E-1 -1.9637180615496488E-2
-4.494301175502771E-1 2.580249853695373E-2
-4.336775362623762E-1 6.876606316490369E-2
-4.1420854392034695E-1 1.0893008246198123E-1
-3.914052535524671E-1 1.4601582733906754E-1
-3.656656049632525E-1 1.797899677657606E-1
-3.37398480678148E-1 2.100647669451953E-1
-3.0701894781193895E-1 2.3669779467670748E-1
1.0000000000000375 1.7608433115241974E-11
9.704685189726417E-1 -9.733694795697798E-2
9.323329611080884E-1 -1.889246291114738E-1
8.864069730205537E-1 -2.740955169046773E-1
8.335451779264358E-1 -3.522810139784352E-1
7.746323365890422E-1 -4.230125145737074E-1
7.105727238869788E-1 -4.8592137988620376E-1
6.422798203085399E-1 -5.407378795604899E-1
5.706664099761568E-1 -5.872891611796466E-1
4.966351674924743E-1 -6.254963154961751E-1
4.210698076398526E-1 -6.553706127274762E-1
3.448268614491926E-1 -6.770089883128456E-1
2.687281351433275E-1 -6.905888628302296E-1
1.9355389475841484E-1 -6.963623811551809E-1
1.2003681346244663E-1 -6.946501589571322E-1
4.885670628193019E-2 -6.858346254779205E-1
-1.93639303456474E-2 -6.703530511574716E-1
-8.406356767212532E-2 -6.486903478365885E-1
-1.4474448305804619E-1 -6.213717270374115E-1
-2.0097479988328226E-1 -5.889552980851768E-1
-2.5238974334560915E-1 -5.520246885601832E-1
-2.986921403083398E-1 -5.111817594001552E-1
-3.3965219380720263E-1 -4.670394872743832E-1
-3.751065703441927E-1 -4.2021507966580807E-1
-4.0495684320250486E-1 -3.7132338252007535E-1
-4.2916733989225886E-1 -3.209706345255728E-1
-4.4776244524476383E-1 -2.697486161610157E-1
-4.608234151550479E-1 -2.1822923461900195E-1
-4.6848475756506563E-1 -1.66959578970244E-1
-4.7093024028272606E-1 -1.1645747516009795E-1
-4.6838858493912355E-1 -6.720756046485261E-2
-4.6112890694966996E-1 -1.9657894095545348E-2
-4.494559609792806E-1 2.5782888499802207E-2
-4.337052511297248E-1 6.874787392653077E-2
-4.1423806267331187E-1 1.0891362523878027E-1
-3.9143647033447626E-1 1.4600140125624456E-1
-3.6569837615978557E-1 1.7977785408836977E-1
-3.3743262641256466E-1 2.100552234925428E-1
1.0000000000000375 1.7608433115241974E-11
9.704678826645535E-1 -9.7336694282612E-2
9.323316983900418E-1 -1.88924200523973E-1
8.86405100637882E-1 -2.7409501171063577E-1
8.335427195822697E-1 -3.522805478567533E-1
7.74629322782869E-1 -4.230122178986042E-1
7.105691913447796E-1 -4.859213944613006E-1
6.422758110399734E-1 -5.407383551573711E-1
5.706619698803006E-1 -5.872902517805535E-1
4.966303442455608E-1 -6.254981755237813E-1
4.210646483667813E-1 -6.553733932987454E-1
3.448214099510435E-1 -6.770128332143825E-1
2.6872242845145944E-1 -6.90593905231442E-1
1.9354795969913002E-1 -6.963687402676514E-1
1.2003066301506875E-1 -6.94657937070823E-1
4.88503363150528E-2 -6.858439051169534E-1
-1.9370544154484224E-2 -6.70363892692094E-1
-8.407047167952376E-2 -6.487027876948663E-1
-1.4475174773457855E-1 -6.21385774873936E-1
-2.00982519182141E-1 -5.889709360635896E-1
-2.5239803386242976E-1 -5.52041869533766E-1
-2.987011387533178E-1 -5.11200405639842E-1
-3.39662053446219E-1 -4.6705948989302565E-1
-3.7511745608512753E-1 -4.2023629810527213E-1
-4.0496892596578055E-1 -3.7134564470591064E-1
-4.291807903304778E-1 -3.2099373767607486E-1
-4.4777742741980114E-1 -2.697723285704441E-1
-4.6084007961352164E-1 -2.1825329754569658E-1
-4.6850323529777316E-1 -1.6698371006424464E-1
-4.709506372157787E-1 -1.1648137234363838E-1
-4.684109766620887E-1 -6.72309064166392E-2
-4.6115333461499003E-1 -1.9680361410839686E-2
-4.4948242826712764E-1 2.5761631623233205E-2
-4.337337221870835E-1 6.872815764140913E-2
-4.142684610417768E-1 1.0889577196028809E-1
-3.914686789288333E-1 1.4598571952207012E-1
-3.6573223826372897E-1 1.797646325687067E-1
1.0000000000000375 1.7608433115241974E-11
9.704672497198819E-1 -9.733648142525066E-2
9.323304455033186E-1 -1.889238690550914E-1
8.864032486084714E-1 -2.7409467423168704E-1
8.335402972581525E-1 -3.522803334151824E-1
7.746263667522689E-1 -4.230122685654067E-1
7.105657452889794E-1 -4.8592186208119714E-1
6.422719243883197E-1 -5.407393974166372E-1
5.706576961657126E-1 -5.872920286950103E-1
4.966257391046496E-1 -6.255008460598647E-1
4.2105976569691833E-1 -6.553771100306687E-1
3.4481629923463214E-1 -6.770177400290903E-1
2.6871713065508035E-1 -6.906001335992233E-1
1.9354250322261188E-1 -6.963764060697384E-1
1.2002505958672505E-1 -6.94667137682908E-1
4.8844577220877955E-2 -6.858547170866928E-1
-1.9376490982150326E-2 -6.703763695387516E-1
-8.407666431380062E-2 -6.487169576004479E-1
-1.4475827090874882E-1 -6.214016392577788E-1
-2.0098948422206633E-1 -5.889884676883264E-1
-2.524055768407092E-1 -5.520610109610266E-1
-2.987094174367953E-1 -5.112210681964348E-1
-3.396712425315881E-1 -4.6708155256256384E-1
-3.751277415944931E-1 -4.202596071902768E-1
-4.049804987746637E-1 -3.713700139981951E-1
-4.291938392017254E-1 -3.210189494162483E-1
-4.477921316464629E-1 -2.6979813496112864E-1
-4.6085660219834607E-1 -2.1827942347807072E-1
-4.6852171635866674E-1 -1.6700985644931876E-1
-4.7097118821490364E-1 -1.1650722039921882E-1
-4.684336750026415E-1 -6.725612250717052E-2
-4.6117822003498743E-1 -1.9704602642229303E-2
-4.495094997737966E-1 2.5738711422017942E-2
-4.3376293631344165E-1 6.870690154391386E-2
-4.1429973108743273E-1 1.0887651359950186E-1
-3.9150187541230536E-1 1.4596877670579744E-1
1.0000000000000375 1.7608433115241974E-11
9.704666218642988E-1 -9.733631733288038E-2
9.323292068383122E-1 -1.8892364981965998E-1
8.864014253679149E-1 -2.740945268236689E-1
8.335379247988058E-1 -3.522803994846166E-1
7.746234892177217E-1 -4.2301270114787454E-1
7.105624147873022E-1 -4.8592282201017867E-1
6.422681992054889E-1 -5.407410495497007E-1
5.70653639402869E-1 -5.872945389271733E-1
4.9662141437483215E-1 -6.255043750893337E-1
4.210552348615222E-1 -6.553818118323078E-1
3.4481161779904174E-1 -6.77023757601883E-1
2.687123433653336E-1 -6.906075957915202E-1
1.9353763938446175E-1 -6.963854246671093E-1
1.2002012822643543E-1 -6.946778050687944E-1
4.8839563667553126E-2 -6.858671033941925E-1
-1.938162919714493E-2 -6.703905214562768E-1
-8.4081999088413E-2 -6.48732895771227E-1
-1.4476390445479645E-1 -6.21419356790622E-1
-2.0099554815918283E-1 -5.890079283082639E-1
-2.524122297219963E-1 -5.520821474780885E-1
-2.987168404737014E-1 -5.112437810118688E-1
-3.3967963413160607E-1 -4.671057087272164E-1
-3.751373107224159E-1 -4.202850399124621E-1
-4.049914575533306E-1 -3.7139652281662683E-1
-4.2920639503108937E-1 -3.210463010573015E-1
-4.478064796003467E-1 -2.698260654406837E-1
-4.608729173909743E-1 -2.1830764062801636E-1
-4.6854014747679884E-1 -1.6703804414980858E-1
-4.709918510855636E-1 -1.1653504266101605E-1
-4.6845664781583124E-1 -6.728322884411282E-2
-4.6120353989458074E-1 -1.973063440494169E-2
-4.495371596839912E-1 2.5714114905123684E-2
-4.337928838013078E-1 6.868409634491933E-2
-4.1433186793136256E-1 1.0885584450810663E-1
1.0000000000000375 1.7608433115241974E-11
9.704660013424953E-1 -9.733620954205903E-2
9.323279883492062E-1 -1.8892355801087546E-1
8.863996418270171E-1 -2.740945915316384E-1
8.335356196223376E-1 -3.5228077416172054E-1
7.74620715787733E-1 -4.230135489964619E-1
7.105592350665899E-1 -4.859243120558381E-1
6.422646824370671E-1 -5.40743353276979E-1
5.706498582708258E-1 -5.872978248067363E-1
4.966174426048601E-1 -6.255088064830682E-1
4.210511425997919E-1 -6.553875425690197E-1
3.448074667546947E-1 -6.770309288420606E-1
2.687081816523662E-1 -6.906163330341663E-1
1.935334960077788E-1 -6.963958352505711E-1
1.2001600850184602E-1 -6.94689975526219E-1
4.883544396579427E-2 -6.85881098303516E-1
-1.938580399771953E-2 -6.704063805120105E-1
-8.408631795118185E-2 -6.487506324639359E-1
-1.447684902333196E-1 -6.214389564174554E-1
-2.010005560788342E-1 -5.89029346188368E-1
-2.524178436386845E-1 -5.521053069322137E-1
-2.9872326784462716E-1 -5.112685719706439E-1
-3.3968709925084173E-1 -4.671319864459056E-1
-3.751460470848687E-1 -4.203126244205339E-1
-4.050016995145938E-1 -3.714251991280199E-1
-4.292183691934006E-1 -3.210758201201547E-1
-4.478203963987146E-1 -2.69856146184467E-1
-4.60888963865804E-1 -2.1833797373528852E-1
-4.685584796143382E-1 -1.6706829545637045E-1
-4.710125879318258E-1 -1.1656485835681314E-1
-4.684798675981748E-1 -6.731224177487696E-2
-4.6122927529310437E-1 -1.9758469683509264E-2
-4.49565396235241E-1 2.5687832702316244E-2
-4.3382355863453365E-1 6.865973626460868E-2
1.0000000000000375 1.7608433115241974E-11
9.70465391227667E-1 -9.733616554545138E-2
9.323267974054086E-1 -1.889236084623955E-1
8.863979113889161E-1 -2.7409488948417704E-1
8.335334028814378E-1 -3.5228148421483496E-1
7.746180769919063E-1 -4.2301484351441687E-1
7.105562480772365E-1 -4.8592636732578975E-1
6.422614281593304E-1 -5.407463452059469E-1
5.706464213447967E-1 -5.873019250693831E-1
4.966139073881502E-1 -6.255141790773573E-1
4.210475880035781E-1 -6.55394340144998E-1
3.4480396061931956E-1 -6.770392898640364E-1
2.687047747009522E-1 -6.906263790048939E-1
1.9353021572979584E-1 -6.964076685343606E-1
1.2001285380764126E-1 -6.947036774322876E-1
4.88323801908494E-2 -6.858967272261847E-1
-1.9388848127208216E-2 -6.704239700214344E-1
-8.408945185795563E-2 -6.487701894568644E-1
-1.4477186109634693E-1 -6.214604591806684E-1
-2.0100434601604578E-1 -5.890527421598856E-1
-2.5242226511365995E-1 -5.521305106429362E-1
-2.987285570930008E-1 -5.112954631175682E-1
-3.396935085096522E-1 -4.671604085751321E-1
-3.751538357099754E-1 -4.203423841994912E-1
-4.0501112477353546E-1 -3.714560666003508E-1
-4.292296767851638E-1 -3.2110752970529444E-1
-4.4783381231236047E-1 -2.698883998619402E-1
-4.6090468557930364E-1 -2.1837044368933592E-1
-4.685766694340534E-1 -1.671006291164592E-1
-4.7103336738096446E-1 -1.1659668394974705E-1
-4.685033124590519E-1 -6.734317436534955E-2
-4.6125541266557896E-1 -1.9788118119281422E-2
-4.4959420249666415E-1 2.565985873896727E-2
1.0000000000000375 1.7608433115241974E-11
9.704647951956493E-1 -9.733619298653876E-2
9.323256431339029E-1 -1.8892381526852603E-1
8.863962503516337E-1 -2.740954407984347E-1
8.335312998970443E-1 -3.52282554835737E-1
7.746156091459359E-1 -4.23016613944442E-1
7.105535027073835E-1 -4.8592901967334523E-1
6.42258499754811E-1 -5.407500590031721E-1
5.706434076207454E-1 -5.873068736147596E-1
4.9661090420808834E-1 -6.255205258049347E-1
4.2104468336052936E-1 -6.55402235655065E-1
3.4480122811307345E-1 -6.770488689954126E-1
2.6870226641417316E-1 -6.906377587990981E-1
1.93527955902516E-1 -6.964209462914627E-1
1.200108322415255E-1 -6.947189292233111E-1
4.883054789437464E-2 -6.859140059220484E-1
-1.9390582206667173E-2 -6.704433037799482E-1
-8.409122164356511E-2 -6.487915796539891E-1
-1.4477384197650153E-1 -6.214838779637404E-1
-2.0100675067553633E-1 -5.890781298634146E-1
-2.5242533765516817E-1 -5.521577734747607E-1
-2.9873256514319524E-1 -5.113244708829828E-1
-3.3969873395112693E-1 -4.6719099305002826E-1
-3.75160564822655E-1 -4.203743383813223E-1
-4.050196378702738E-1 -3.7148914481369294E-1
-4.2924023899340114E-1 -3.211414499341016E-1
-4.4784666366800685E-1 -2.6992284550096557E-1
-4.609200331893598E-1 -2.1840506807786353E-1
-4.685946805843432E-1 -1.6713506062236713E-1
-4.7105416387497906E-1 -1.1663053196865657E-1
-4.685269663639878E-1 -6.73760360474655E-2
-4.6128194351478174E-1 -1.981958561825306E-2
1.0000000000000375 1.7608433115241974E-11
9.70464217881566E-1 -9.73362988800215E-2
9.323245366200356E-1 -1.889241918697725E-1
8.863946782316551E-1 -2.740962644271602E-1
8.335293406742613E-1 -3.522840094111873E-1
7.746133547326848E-1 -4.230188868523493E-1
7.105510558083635E-1 -4.8593229754326234E-1
6.422559701961803E-1 -5.407545237686856E-1
5.706409073700265E-1 -5.873126987218503E-1
4.966085413283623E-1 -6.25527873020659E-1
4.2104255501670906E-1 -6.554112522760921E-1
3.4479941287083116E-1 -6.770596856418133E-1
2.6870081630419723E-1 -6.906504877818164E-1
1.9352688911687435E-1 -6.964356800450575E-1
1.2001012652264736E-1 -6.947357389367197E-1
4.883013586390582E-2 -6.85932940052009E-1
-1.939081566228419E-2 -6.704643861521841E-1
-8.409143929634769E-2 -6.488148070945693E-1
-1.4477425142482808E-1 -6.215092175003113E-1
-2.010075990046289E-1 -5.891055157524887E-1
-2.524269037586273E-1 -5.521871041668128E-1
-2.987351502130334E-1 -5.113556064372656E-1
-3.397026510204496E-1 -4.6722375325694865E-1
-3.7516612761239615E-1 -4.204085020853609E-1
-4.0502715007588586E-1 -3.7152445043185134E-1
-4.2924998380587903E-1 -3.211775972694978E-1
-4.478588942959238E-1 -2.699594989028378E-1
-4.6093496484162244E-1 -2.1844186117506628E-1
-4.686124836875945E-1 -1.671716019554543E-1
-4.710749587295138E-1 -1.1666641155593618E-1
-4.685508193572047E-1 -6.741083266032022E-2
1.0000000000000375 1.7608433115241974E-11
9.704636648976888E-1 -9.733648994789741E-2
9.323234911287652E-1 -1.889247509176362E-1
8.8639321812227E-1 -2.7409737791075534E-1
8.33527560351224E-1 -3.522858691504614E-1
7.746113630893596E-1 -4.230216857410965E-1
7.105489729638039E-1 -4.85936225381939E-1
6.422539229066323E-1 -5.407597632448241E-1
5.706390230379655E-1 -5.873194220601542E-1
4.966069407807745E-1 -6.255362390438813E-1
4.2104134432616586E-1 -6.554214040634373E-1
3.4479867427785293E-1 -6.770717491819649E-1
2.6870059966893145E-1 -6.906645705356569E-1
1.935272035400645E-1 -6.964518699527597E-1
1.2001093367050716E-1 -6.947541033667695E-1
4.883134547109335E-2 -6.859535242410364E-1
-1.938934755929593E-2 -6.704872110310728E-1
-8.40899090593432E-2 -6.488398664385622E-1
-1.447729033884369E-1 -6.215364745785863E-1
-2.0100671833901534E-1 -5.891348995336644E-1
-2.524268069622486E-1 -5.522185057848484E-1
-2.9873617400021873E-1 -5.113888761460674E-1
-3.397051405195252E-1 -4.6725869869500986E-1
-3.751704242786544E-1 -4.2044488712771916E-1
-4.050335801419373E-1 -3.7156199638377063E-1
-4.2925884755707183E-1 -3.2121598503049664E-1
-4.4787045650989465E-1 -2.6999837272252286E-1
-4.609494469413164E-1 -2.1848083402967464E-1
-4.686300571883097E-1 -1.6721026175921053E-1
-4.710957403946618E-1 -1.1670432837208258E-1
1.0000000000000375 1.7608433115241974E-11
9.704631429516831E-1 -9.733677253172107E-2
9.323225223460888E-1 -1.8892550410289116E-1
8.863918970563346E-1 -2.740987971284698E-1
8.335259997294766E-1 -3.522881526971394E-1
7.746096910894765E-1 -4.2302503052586254E-1
7.105473291640911E-1 -4.8594082266574873E-1
6.422524526661527E-1 -5.407657949501445E-1
5.706378702845043E-1 -5.873270576349788E-1
4.9660623941093873E-1 -6.255456330591379E-1
4.2104120854134297E-1 -6.554326947641129E-1
3.4479918834693374E-1 -6.770850575596797E-1
2.687018083571881E-1 -6.906799994682621E-1
1.9352910299187542E-1 -6.964695038770559E-1
1.2001346476033697E-1 -6.947740072237099E-1
4.8834389843851855E-2 -6.859757417727812E-1
-1.9385968096238607E-2 -6.705117621192179E-1
-8.408642958675229E-2 -6.488667435406988E-1
-1.4476960941344216E-1 -6.215656384040339E-1
-2.010039366537953E-1 -5.8916627463938E-1
-2.5242489416566855E-1 -5.522519762920822E-1
-2.9873550389521786E-1 -5.114242825490631E-1
-3.3970609075536845E-1 -4.672958353142478E-1
-3.751733636436161E-1 -4.204835022203174E-1
-4.050388563223454E-1 -3.7160179294855394E-1
-4.292667761852472E-1 -3.2125662372384883E-1
-4.478813120366385E-1 -2.700394766830394E-1
-4.6096345481620543E-1 -2.1852199456975013E-1
-4.686473877947209E-1 -1.672510453998359E-1
1.0000000000000375 1.7608433115241974E-11
9.704626599936085E-1 -9.733715239561616E-2
9.323216486432189E-1 -1.8892646192806858E-1
8.863907464662163E-1 -2.741005358572557E-1
8.335247058100457E-1 -3.522908756564272E-1
7.746084037858437E-1 -4.230289368472656E-1
7.105462097070909E-1 -4.8594610323061244E-1
6.42251666644449E-1 -5.407726290843706E-1
5.706375790351751E-1 -5.873356104445976E-1
4.9660658981107453E-1 -6.255560538210209E-1
4.21042321719461E-1 -6.554451163465448E-1
3.4480114834011644E-1 -6.770995958084952E-1
2.687046510567149E-1 -6.906967536369967E-1
1.9353280684336455E-1 -6.964885563303346E-1
1.2001794427097348E-1 -6.947954224641992E-1
4.8839492643487664E-2 -6.85999564282896E-1
-1.9380460287207992E-2 -6.705380129270754E-1
-8.408079582696942E-2 -6.488954156270753E-1
-1.4476418087346188E-1 -6.215966913818198E-1
-2.009990850372604E-1 -5.891996292826641E-1
-2.5242101829341795E-1 -5.52287509762811E-1
-2.987330153697384E-1 -5.114618246407435E-1
-3.3970539967849106E-1 -4.6733516654597146E-1
-3.751748649891603E-1 -4.205243536007802E-1
-4.05042917460621E-1 -3.7164384773679804E-1
-4.292737262581345E-1 -3.212995213032179E-1
-4.478914327913908E-1 -2.70082817724853E-1
-4.6097697324846704E-1 -2.1856534770875133E-1
1.0000000000000375 1.7608433115241974E-11
9.704622252892181E-1 -9.733763487368932E-2
9.323208913258636E-1 -1.8892763362974313E-1
8.863898024749391E-1 -2.7410260572051165E-1
8.335237324178664E-1 -3.522940500638546E-1
7.746075753092637E-1 -4.2303341516308374E-1
7.105457111981938E-1 -4.859520740213121E-1
6.422516855086954E-1 -5.407802671793255E-1
5.706382946587434E-1 -5.873450751242351E-1
4.966081615561181E-1 -6.255674881002508E-1
4.2104487592680573E-1 -6.554586471603271E-1
3.448047655308853E-1 -6.771153346092965E-1
2.687093535790972E-1 -6.907147974257831E-1
1.9353854968641726E-1 -6.965089875526177E-1
1.2002460912001352E-1 -6.948183078122001E-1
4.884688642557003E-2 -6.86024951723871E-1
-1.9372602172071453E-2 -6.705659271784808E-1
-8.40728018411341E-2 -6.489258521624645E-1
-1.4475643197600138E-1 -6.216296098546508E-1
-2.0099200062094078E-1 -5.892349471421856E-1
-2.52415040773441E-1 -5.523250968094938E-1
-2.987285943443437E-1 -5.115014991361625E-1
-3.397029767359367E-1 -4.673766936049638E-1
-3.7517485958456726E-1 -4.20567445450749E-1
-4.050457146486915E-1 -3.716881665045471E-1
-4.2927966603411283E-1 -3.213446834207353E-1
-4.479008014953287E-1 -2.7012840014433753E-1
1.0000000000000375 1.7608433115241974E-11
9.704618496155236E-1 -9.733822454097114E-2
9.323202749483449E-1 -1.889290268001968E-1
8.863891065361322E-1 -2.741050154071617E-1
8.335231409238602E-1 -3.522976836127491E-1
7.746072897088587E-1 -4.2303846994163186E-1
7.105459426413604E-1 -4.859587340281791E-1
6.422526446519521E-1 -5.407887007755433E-1
5.706401793448181E-1 -5.873554342270516E-1
4.96611142593351E-1 -6.255799086780635E-1
4.210490824032397E-1 -6.554732502706321E-1
3.44810269824608E-1 -6.771322286737405E-1
2.687161589080516E-1 -6.9073407930914E-1
1.9354658062412822E-1 -6.965307428036401E-1
1.2003370719259703E-1 -6.94842608558848E-1
4.885681057064975E-2 -6.860518527536286E-1
-1.936216941796357E-2 -6.705954596093678E-1
-8.406224364087683E-2 -6.489580158852277E-1
-1.4474618271694883E-1 -6.216643655443866E-1
-2.0098252950282866E-1 -5.892722088308546E-1
-2.524068343015608E-1 -5.523647260058063E-1
-2.987221394172256E-1 -5.115433011687325E-1
-3.396987447463293E-1 -4.674204163627663E-1
-3.75173292261125E-1 -4.2061278063339463E-1
-4.0504721190100346E-1 -3.717347531837916E-1
-4.2928457584651925E-1 -3.2139211353564756E-1
1.0000000000000375 1.7608433115241974E-11
9.704615453897714E-1 -9.733892515763089E-2
9.323198276657392E-1 -1.88930647090464E-1
8.863887059370846E-1 -2.741077702597127E-1
8.335230010212478E-1 -3.5230177889905107E-1
7.746076420163545E-1 -4.230440984937436E-1
7.105470266955787E-1 -4.8596607277783505E-1
6.422546957013439E-1 -5.407979096130168E-1
5.706434135350782E-1 -5.873666563351057E-1
4.9661574070606124E-1 -6.25593272229236E-1
4.2105517220192984E-1 -6.554888716553239E-1
3.4481791026580916E-1 -6.771502151272627E-1
2.6872532684328226E-1 -6.907545308108569E-1
1.9355716231649397E-1 -6.965537517356877E-1
1.2004549545242618E-1 -6.948682567659202E-1
4.886950858704213E-2 -6.860802054701947E-1
-1.9348938569289428E-2 -6.706265572092517E-1
-8.404892257215495E-2 -6.489918643276856E-1
-1.44733262337852E-1 -6.217009270056367E-1
-2.0097052976111868E-1 -5.893113931491157E-1
-2.5239628546312415E-1 -5.524063850012134E-1
-2.9871356405914806E-1 -5.115872252363253E-1
-3.396926416554541E-1 -4.6746633404551285E-1
-3.7517012247318116E-1 -4.206603609134487E-1
-4.0504738703554044E-1 -3.7178361016328626E-1
1.0000000000000375 1.7608433115241974E-11
9.704613268514016E-1 -9.733973950258759E-2
9.323195816109918E-1 -1.8893249785394103E-1
8.863886544537919E-1 -2.7411087160682324E-1
8.335233916434175E-1 -3.523063324532859E-1
7.74608739465989E-1 -4.2305028963085645E-1
7.10549101167189E-1 -4.8597406879609595E-1
6.422580081376971E-1 -5.408078596292778E-1
5.706481979885223E-1 -5.873786934801635E-1
4.9662218472054187E-1 -6.256075174069997E-1
4.2106339755048855E-1 -6.555054379737153E-1
3.448279554118025E-1 -6.771692118729535E-1
2.687371336723651E-1 -6.90776065413977E-1
1.9357056914613513E-1 -6.965779285040484E-1
1.2006023731874473E-1 -6.94895171940777E-1
4.8885224744905496E-2 -6.861099387956019E-1
-1.9332690698344413E-2 -6.706591609190277E-1
-8.403264923491377E-2 -6.490273516951583E-1
-1.4471751260681814E-1 -6.217392611641275E-1
-2.0095587456557165E-1 -5.893524786135939E-1
-2.5238329725699993E-1 -5.52450061680938E-1
-2.9870279855774423E-1 -5.116332660959162E-1
-3.396846218446154E-1 -4.675144457160759E-1
-3.751653252175579E-1 -4.2071018732729193E-1
1.0000000000000375 1.7608433115241974E-11
9.70461210262536E-1 -9.734066918339064E-2
9.323195734211503E-1 -1.8893457964086882E-1
8.863890130437374E-1 -2.7411431607146014E-1
8.335244020195932E-1 -3.523113336008299E-1
7.746107029078522E-1 -4.230570220993797E-1
7.105523209800434E-1 -4.859826871610417E-1
6.422627715232601E-1 -5.408185003016329E-1
5.706547551823754E-1 -5.873914788646042E-1
4.9663072633723976E-1 -6.256225619463526E-1
4.210740327242994E-1 -6.555228544790824E-1
3.448406931753237E-1 -6.771891162591136E-1
2.6875187060108213E-1 -6.907985782847593E-1
1.9358708492984916E-1 -6.966031721293708E-1
1.2007819924130524E-1 -6.949232624147043E-1
4.890420016795043E-2 -6.861409742637651E-1
-1.9313215628590282E-2 -6.706932078266035E-1
-8.401324722886219E-2 -6.490644307827241E-1
-1.4469879164012775E-1 -6.21779335504254E-1
-2.0093845512118008E-1 -5.893954449627161E-1
-2.52367791384227E-1 -5.524957453133946E-1
-2.986897916056653E-1 -5.116814194534213E-1
-3.3967465716712875E-1 -4.6756475072531145E-1
1.0000000000000375 1.7608433115241974E-11
9.704612141281399E-1 -9.734171441147567E-2
9.323198445447552E-1 -1.8893688979346981E-1
8.863898507769208E-1 -2.7411809442785123E-1
8.335261332087897E-1 -3.523167628088352E-1
7.746136688547046E-1 -4.230642623833528E-1
7.105568600385667E-1 -4.859918773147073E-1
6.422691974277995E-1 -5.40829762005686E-1
5.706633318631361E-1 -5.874049237074707E-1
4.9664164182319176E-1 -6.256383000990009E-1
4.210873747906374E-1 -6.55541002863724E-1
3.4485643041650094E-1 -6.772098038597876E-1
2.6876984196889725E-1 -6.908219462668879E-1
1.9360699959634614E-1 -6.966293677861183E-1
1.2009964650693905E-1 -6.949524274298208E-1
4.892666810655716E-2 -6.861732288402921E-1
-1.9290316517149526E-2 -6.707286337693066E-1
-8.399055755586977E-2 -6.491030555801308E-1
-1.4467697731386955E-1 -6.218211199231557E-1
-2.0091818343078885E-1 -5.894402747407768E-1
-2.52349710124558E-1 -5.525434274214082E-1
-2.9867451153587543E-1 -5.117316825420549E-1
1.0000000000000375 1.7608433115241974E-11
9.704613595135289E-1 -9.73428736493724E-2
9.323204421442128E-1 -1.889394216199871E-1
8.863912460636572E-1 -2.741221905949137E-1
8.335286994539134E-1 -3.523225901443573E-1
7.746177911620249E-1 -4.2307196243128836E-1
7.105629139260575E-1 -4.86001569843921E-1
6.422775223753099E-1 -5.408415524328858E-1
5.706742014789804E-1 -5.874189137381316E-1
4.966552336315928E-1 -6.25654599526586E-1
4.211037439357127E-1 -6.555597394129186E-1
3.4487549147321117E-1 -6.77231128054827E-1
2.6879136221107686E-1 -6.908460288215579E-1
1.9363060477886965E-1 -6.966563889907439E-1
1.201248382175956E-1 -6.949825600618276E-1
4.895284863499479E-2 -6.862066179496343E-1
-1.9263814832949817E-2 -6.707653764235063E-1
-8.396444280486791E-2 -6.491431838421045E-1
-1.4465197050205159E-1 -6.218645885751993E-1
-2.008949945084798E-1 -5.894869544022231E-1
-2.523290178768193E-1 -5.525931027379031E-1
1.0000000000000375 1.7608433115241974E-11
9.704616702856753E-1 -9.734414344179902E-2
9.32321419762461E-1 -1.889421636278012E-1
8.863932878211667E-1 -2.741265800591827E-1
8.335322303439171E-1 -3.523287728453116E-1
7.74623244044795E-1 -4.230800565328961E-1
7.105707030657851E-1 -4.8601167274576645E-1
6.422880111824207E-1 -5.408537524677897E-1
5.706876668763686E-1 -5.874333053547773E-1
4.9667183193807385E-1 -6.256712983692583E-1
4.211234832083207E-1 -6.555788934109416E-1
3.4489821593507725E-1 -6.772529203031262E-1
2.6881675157004664E-1 -6.908706701224424E-1
1.9365818853609687E-1 -6.966841008164728E-1
1.2015402102518019E-1 -6.950135512291419E-1
4.898294283536094E-2 -6.862410593554558E-1
-1.923355542959201E-2 -6.708033785985522E-1
-8.393479099411101E-2 -6.49184779467175E-1
-1.4462369785658188E-1 -6.219097216159785E-1
-2.008688482053513E-1 -5.895354754126766E-1
1.0000000000000375 1.7608433115241974E-11
9.704621736227911E-1 -9.734551779181858E-2
9.323228383034267E-1 -1.8894509844093044E-1
8.863960772870534E-1 -2.7413122799798645E-1
8.335368733752928E-1 -3.523352524968842E-1
7.746302253834105E-1 -4.230884573940877E-1
7.105804767022644E-1 -4.860220667093584E-1
6.423009605899355E-1 -5.408662113626127E-1
5.70704063254309E-1 -5.874479212750132E-1
4.9669179574119837E-1 -6.256882024098149E-1
4.2114695716715234E-1 -6.555982665153466E-1
3.4492495474116464E-1 -6.772749917335323E-1
2.688463304814306E-1 -6.908957025061043E-1
1.936900280815475E-1 -6.967123646354216E-1
1.2018742236305925E-1 -6.950452942858398E-1
4.901712667556772E-2 -6.862764774394975E-1
-1.919941128992787E-2 -6.708425914647386E-1
-8.390151906320598E-2 -6.492278147855439E-1
-1.445921140214651E-1 -6.219565065479359E-1
1.0000000000000375 1.7608433115241974E-11
9.704629004815706E-1 -9.734698768490613E-2
9.323247673002024E-1 -1.8894820143935956E-1
8.863997302460048E-1 -2.74136086818681E-1
8.33542797307246E-1 -3.5234195128341017E-1
7.746389611129387E-1 -4.230970512042721E-1
7.105925175294129E-1 -4.860325995224517E-1
6.423167039324454E-1 -5.40878740879178E-1
5.707237609757004E-1 -5.874625459788319E-1
4.967155131076094E-1 -6.257050828663212E-1
4.211745489644919E-1 -6.556176334553337E-1
3.449560644389405E-1 -6.77297136654082E-1
2.68880411635312E-1 -6.909209518597492E-1
1.937263819623731E-1 -6.967410439843483E-1
1.2022524294295682E-1 -6.950776907603413E-1
4.905554507386162E-2 -6.863128074595514E-1
-1.916128785060601E-2 -6.7088297756575E-1
-8.386457555251142E-2 -6.49272272361476E-1
1.0000000000000375 1.7608433115241974E-11
9.704638862629043E-1 -9.734854036777864E-2
9.32327286615164E-1 -1.8895143890280588E-1
8.864043799724737E-1 -2.7414109297358014E-1
8.335501963617695E-1 -3.523487672473425E-1
7.746497105063099E-1 -4.23105691375851E-1
7.106071479343534E-1 -4.860430786698053E-1
6.423356159774933E-1 -5.408911088271451E-1
5.707471681296938E-1 -5.874769213923422E-1
4.9674339988756494E-1 -6.257216754064836E-1
4.212066551539713E-1 -6.556367448532608E-1
3.4499189894254606E-1 -6.77319138294266E-1
2.689192907098662E-1 -6.909462447064869E-1
1.9376748085721496E-1 -6.967700115092315E-1
1.2026764933445479E-1 -6.951106557820308E-1
4.909830640926525E-2 -6.863499996034491E-1
-1.9119126389105862E-2 -6.709245132685521E-1
1.0000000000000375 1.7608433115241974E-11
9.70465171766386E-1 -9.735015835246817E-2
9.323304884574709E-1 -1.8895476582574022E-1
8.864101809923409E-1 -2.741461626946778E-1
8.335592962145933E-1 -3.5235556766259024E-1
7.746627737392084E-1 -4.231141900975586E-1
7.106247370729554E-1 -4.860532627992356E-1
6.423581183589882E-1 -5.409030317570847E-1
5.707747318229236E-1 -5.874907432609316E-1
4.9677589602679356E-1 -6.257376815297298E-1
4.2124367741025515E-1 -6.556553330061549E-1
3.4503279862554237E-1 -6.773407773564305E-1
2.6896323507318204E-1 -6.909714172914128E-1
1.9381351798650986E-1 -6.967991567450257E-1
1.2031476688926206E-1 -6.951441238198195E-1
4.914547819251993E-2 -6.863880223842628E-1
1.0000000000000375 1.7608433115241974E-11
9.704668041302975E-1 -9.735181827976452E-2
9.323344805383931E-1 -1.889581224849501E-1
8.864173146589578E-1 -2.741511860356912E-1
8.335703616621267E-1 -3.5236218045013334E-1
7.74678500993673E-1 -4.2312230783141236E-1
7.106457097055698E-1 -4.860628510392944E-1
6.423846846899329E-1 -5.409141676654666E-1
5.708069372847875E-1 -5.875036595838077E-1
4.9681345806395366E-1 -6.25752773361731E-1
4.212860102843609E-1 -6.556731216604887E-1
3.4507907656262826E-1 -6.773618435013613E-1
2.6901247146976587E-1 -6.909963259225862E-1
1.9386463991023858E-1 -6.968283937168324E-1
1.203666739527688E-1 -6.951780532569865E-1
1.0000000000000375 1.7608433115241974E-11
9.704688387191158E-1 -9.735348905665843E-2
9.323393901403542E-1 -1.889614300187164E-1
8.864259964384037E-1 -2.7415601878104523E-1
8.335837073131106E-1 -3.5236838228683415E-1
7.74697304652132E-1 -4.2312973927838154E-1
7.106705561258145E-1 -4.8607147076712687E-1
6.424158442692183E-1 -5.409241096097542E-1
5.70844302828854E-1 -5.875152729494255E-1
4.968565463595528E-1 -6.257666040069035E-1
4.213340245950713E-1 -6.55689840319411E-1
3.451310025145738E-1 -6.773821493295292E-1
2.690671736419301E-1 -6.910208576992029E-1
1.939209387090299E-1 -6.968576675789722E-1
1.0000000000000375 1.7608433115241974E-11
9.704713412364244E-1 -9.735512944281681E-2
9.323453700464949E-1 -1.8896458398076926E-1
8.864364865545231E-1 -2.741604707999868E-1
8.33599712336528E-1 -3.5237388214322385E-1
7.747196748715327E-1 -4.231360955476716E-1
7.106998427180408E-1 -4.8607866423477414E-1
6.424521821046526E-1 -5.409323827515784E-1
5.708873681450628E-1 -5.875251495394465E-1
4.969056055100314E-1 -6.257788246259325E-1
4.213880465354928E-1 -6.55705243057148E-1
3.4518878603768915E-1 -6.774015456165612E-1
2.6912745154413237E-1 -6.910449400625694E-1
1.0000000000000375 1.7608433115241974E-11
9.704743911305213E-1 -9.735668441568066E-2
9.323526072335103E-1 -1.8896744490237205E-1
8.864491054461492E-1 -2.741642890735439E-1
8.336188409812454E-1 -3.5237829837109147E-1
7.747461986908821E-1 -4.231408817592185E-1
7.10734220766491E-1 -4.8608387637079253E-1
6.424943315696326E-1 -5.409384486757296E-1
5.709366727891743E-1 -5.875328381632354E-1
4.969610373676083E-1 -6.257891095296987E-1
4.21448334173275E-1 -6.557191304726181E-1
3.452525610296911E-1 -6.774199355102375E-1
1.0000000000000375 1.7608433115241974E-11
9.704780863475216E-1 -9.735808002230614E-2
9.323613360992093E-1 -1.8896982387422015E-1
8.864642568012847E-1 -2.741671323617455E-1
8.336416709884381E-1 -3.5238112680335953E-1
7.747775821862879E-1 -4.231434709442991E-1
7.107744291865361E-1 -4.860864483627592E-1
6.425429540146519E-1 -5.40941723051517E-1
5.709927220442687E-1 -5.875379025521115E-1
4.9702316783827816E-1 -6.257971880560561E-1
4.215150546937472E-1 -6.557313713659879E-1
1.0000000000000375 1.7608433115241974E-11
9.70482551327002E-1 -9.735921469433848E-2
9.323718593272741E-1 -1.8897145979782418E-1
8.864824625106187E-1 -2.7416853265273505E-1
8.336689322764822E-1 -3.5238169713860484E-1
7.748146717627606E-1 -4.231430777826799E-1
7.108212824941023E-1 -4.860856262140377E-1
6.425986983682228E-1 -5.4094161430489E-1
5.710559398834224E-1 -5.875399676665848E-1
4.970922121884985E-1 -6.258028785804781E-1
1.0000000000000375 1.7608433115241974E-11
9.704879494635633E-1 -9.735994576091929E-2
9.323845818555816E-1 -1.8897198224097309E-1
8.865044165452641E-1 -2.741678355392859E-1
8.337015566479383E-1 -3.5237911632092583E-1
7.748584645712059E-1 -4.231387429116767E-1
7.108756300986729E-1 -4.8608059939574505E-1
6.42662135337459E-1 -5.409375895530721E-1
5.71126614419308E-1 -5.87538774577416E-1
1.0000000000000375 1.7608433115241974E-11
9.704945049810697E-1 -9.736006554698264E-2
9.324000690069214E-1 -1.8897084759506175E-1
8.865310679513427E-1 -2.741641079575646E-1
8.337407329616615E-1 -3.523722044640894E-1
7.749100855594203E-1 -4.231293520151429E-1
7.10938269397325E-1 -4.8607058898749755E-1
6.427336694559251E-1 -5.409292649529676E-1
1.0000000000000375 1.7608433115241974E-11
9.70502543128459E-1 -9.73592574254762E-2
9.324191498265756E-1 -1.8896722523600487E-1
8.865637447153881E-1 -2.74155999694041E-1
8.337879430506665E-1 -3.52359449658273E-1
7.749706903402341E-1 -4.231137343539366E-1
7.110098029855377E-1 -4.860549967633615E-1
1.0000000000000375 1.7608433115241974E-11
9.705125705168166E-1 -9.73570075784126E-2
9.324431076041567E-1 -1.889597868029907E-1
8.866043188241096E-1 -2.74141557090709E-1
8.338449076060295E-1 -3.523390587003315E-1
7.750412419348964E-1 -4.2309089852704773E-1
1.0000000000000375 1.7608433115241974E-11
9.705254516472205E-1 -9.73524103634545E-2
9.324740355350633E-1 -1.8894631130310954E-1
8.866553488205176E-1 -2.7411805728595173E-1
8.339132890671715E-1 -3.523092722509816E-1
1.0000000000000375 1.7608433115241974E-11
9.705428415451809E-1 -9.734368974708903E-2
9.32515466333264E-1 -1.8892298286001347E-1
8.867199075920524E-1 -2.740821837329689E-1
1.0000000000000375 1.7608433115241974E-11
9.705683779591509E-1 -9.732687672266015E-2
9.325731920989427E-1 -1.888834679371482E-1
1.0000000000000375 1.7608433115241974E-11
9.706113720703202E-1 -9.729170556601187E-2
1.0000000000000375 1.7608433118399907E-11
